*HEADING
Fanless topology concept; mm N MPa; ideal fixed interfaces
*NODE
1, 0.0, 0.0, 0
2, 2.0, 0.0, 0
3, 4.0, 0.0, 0
4, 6.0, 0.0, 0
5, 8.0, 0.0, 0
6, 10.0, 0.0, 0
7, 12.0, 0.0, 0
8, 14.0, 0.0, 0
9, 16.0, 0.0, 0
10, 18.0, 0.0, 0
11, 20.0, 0.0, 0
12, 22.0, 0.0, 0
13, 24.0, 0.0, 0
14, 26.0, 0.0, 0
15, 28.0, 0.0, 0
16, 30.0, 0.0, 0
17, 32.0, 0.0, 0
18, 34.0, 0.0, 0
19, 36.0, 0.0, 0
20, 38.0, 0.0, 0
21, 40.0, 0.0, 0
22, 42.0, 0.0, 0
23, 44.0, 0.0, 0
24, 46.0, 0.0, 0
25, 48.0, 0.0, 0
26, 50.0, 0.0, 0
27, 52.0, 0.0, 0
28, 54.0, 0.0, 0
29, 56.0, 0.0, 0
30, 58.0, 0.0, 0
31, 60.0, 0.0, 0
32, 0.0, 2.0, 0
33, 2.0, 2.0, 0
34, 4.0, 2.0, 0
35, 6.0, 2.0, 0
36, 8.0, 2.0, 0
37, 10.0, 2.0, 0
38, 12.0, 2.0, 0
39, 14.0, 2.0, 0
40, 16.0, 2.0, 0
41, 18.0, 2.0, 0
42, 20.0, 2.0, 0
43, 22.0, 2.0, 0
44, 24.0, 2.0, 0
45, 26.0, 2.0, 0
46, 28.0, 2.0, 0
47, 30.0, 2.0, 0
48, 32.0, 2.0, 0
49, 34.0, 2.0, 0
50, 36.0, 2.0, 0
51, 38.0, 2.0, 0
52, 40.0, 2.0, 0
53, 42.0, 2.0, 0
54, 44.0, 2.0, 0
55, 46.0, 2.0, 0
56, 48.0, 2.0, 0
57, 50.0, 2.0, 0
58, 52.0, 2.0, 0
59, 54.0, 2.0, 0
60, 56.0, 2.0, 0
61, 58.0, 2.0, 0
62, 60.0, 2.0, 0
63, 0.0, 4.0, 0
64, 2.0, 4.0, 0
65, 4.0, 4.0, 0
66, 6.0, 4.0, 0
67, 8.0, 4.0, 0
68, 10.0, 4.0, 0
69, 12.0, 4.0, 0
70, 14.0, 4.0, 0
71, 16.0, 4.0, 0
72, 18.0, 4.0, 0
73, 20.0, 4.0, 0
74, 22.0, 4.0, 0
75, 24.0, 4.0, 0
76, 26.0, 4.0, 0
77, 28.0, 4.0, 0
78, 30.0, 4.0, 0
79, 32.0, 4.0, 0
80, 34.0, 4.0, 0
81, 36.0, 4.0, 0
82, 38.0, 4.0, 0
83, 40.0, 4.0, 0
84, 42.0, 4.0, 0
85, 44.0, 4.0, 0
86, 46.0, 4.0, 0
87, 48.0, 4.0, 0
88, 50.0, 4.0, 0
89, 52.0, 4.0, 0
90, 54.0, 4.0, 0
91, 56.0, 4.0, 0
92, 58.0, 4.0, 0
93, 60.0, 4.0, 0
94, 0.0, 6.0, 0
95, 2.0, 6.0, 0
96, 4.0, 6.0, 0
97, 6.0, 6.0, 0
98, 8.0, 6.0, 0
99, 10.0, 6.0, 0
100, 12.0, 6.0, 0
101, 14.0, 6.0, 0
102, 16.0, 6.0, 0
103, 18.0, 6.0, 0
104, 20.0, 6.0, 0
105, 22.0, 6.0, 0
106, 24.0, 6.0, 0
107, 26.0, 6.0, 0
108, 28.0, 6.0, 0
109, 30.0, 6.0, 0
110, 32.0, 6.0, 0
111, 34.0, 6.0, 0
112, 36.0, 6.0, 0
113, 38.0, 6.0, 0
114, 40.0, 6.0, 0
115, 42.0, 6.0, 0
116, 44.0, 6.0, 0
117, 46.0, 6.0, 0
118, 48.0, 6.0, 0
119, 50.0, 6.0, 0
120, 52.0, 6.0, 0
121, 54.0, 6.0, 0
122, 56.0, 6.0, 0
123, 58.0, 6.0, 0
124, 60.0, 6.0, 0
125, 0.0, 8.0, 0
126, 2.0, 8.0, 0
127, 4.0, 8.0, 0
128, 6.0, 8.0, 0
129, 8.0, 8.0, 0
130, 10.0, 8.0, 0
131, 12.0, 8.0, 0
132, 14.0, 8.0, 0
133, 16.0, 8.0, 0
134, 18.0, 8.0, 0
135, 20.0, 8.0, 0
136, 22.0, 8.0, 0
137, 24.0, 8.0, 0
138, 26.0, 8.0, 0
139, 28.0, 8.0, 0
140, 30.0, 8.0, 0
141, 32.0, 8.0, 0
142, 34.0, 8.0, 0
143, 36.0, 8.0, 0
144, 38.0, 8.0, 0
145, 40.0, 8.0, 0
146, 42.0, 8.0, 0
147, 44.0, 8.0, 0
148, 46.0, 8.0, 0
149, 48.0, 8.0, 0
150, 50.0, 8.0, 0
151, 52.0, 8.0, 0
152, 54.0, 8.0, 0
153, 56.0, 8.0, 0
154, 58.0, 8.0, 0
155, 60.0, 8.0, 0
156, 0.0, 10.0, 0
157, 2.0, 10.0, 0
158, 4.0, 10.0, 0
159, 6.0, 10.0, 0
160, 8.0, 10.0, 0
161, 10.0, 10.0, 0
162, 12.0, 10.0, 0
163, 14.0, 10.0, 0
164, 16.0, 10.0, 0
165, 18.0, 10.0, 0
166, 20.0, 10.0, 0
167, 22.0, 10.0, 0
168, 24.0, 10.0, 0
169, 26.0, 10.0, 0
170, 28.0, 10.0, 0
171, 30.0, 10.0, 0
172, 32.0, 10.0, 0
173, 34.0, 10.0, 0
174, 36.0, 10.0, 0
175, 38.0, 10.0, 0
176, 40.0, 10.0, 0
177, 42.0, 10.0, 0
178, 44.0, 10.0, 0
179, 46.0, 10.0, 0
180, 48.0, 10.0, 0
181, 50.0, 10.0, 0
182, 52.0, 10.0, 0
183, 54.0, 10.0, 0
184, 56.0, 10.0, 0
185, 58.0, 10.0, 0
186, 60.0, 10.0, 0
187, 0.0, 12.0, 0
188, 2.0, 12.0, 0
189, 4.0, 12.0, 0
190, 6.0, 12.0, 0
191, 8.0, 12.0, 0
192, 10.0, 12.0, 0
193, 12.0, 12.0, 0
194, 14.0, 12.0, 0
195, 16.0, 12.0, 0
196, 18.0, 12.0, 0
197, 20.0, 12.0, 0
198, 22.0, 12.0, 0
199, 24.0, 12.0, 0
200, 26.0, 12.0, 0
201, 28.0, 12.0, 0
202, 30.0, 12.0, 0
203, 32.0, 12.0, 0
204, 34.0, 12.0, 0
205, 36.0, 12.0, 0
206, 38.0, 12.0, 0
207, 40.0, 12.0, 0
208, 42.0, 12.0, 0
209, 44.0, 12.0, 0
210, 46.0, 12.0, 0
211, 48.0, 12.0, 0
212, 50.0, 12.0, 0
213, 52.0, 12.0, 0
214, 54.0, 12.0, 0
215, 56.0, 12.0, 0
216, 58.0, 12.0, 0
217, 60.0, 12.0, 0
218, 0.0, 14.0, 0
219, 2.0, 14.0, 0
220, 4.0, 14.0, 0
221, 6.0, 14.0, 0
222, 8.0, 14.0, 0
223, 10.0, 14.0, 0
224, 12.0, 14.0, 0
225, 14.0, 14.0, 0
226, 16.0, 14.0, 0
227, 18.0, 14.0, 0
228, 20.0, 14.0, 0
229, 22.0, 14.0, 0
230, 24.0, 14.0, 0
231, 26.0, 14.0, 0
232, 28.0, 14.0, 0
233, 30.0, 14.0, 0
234, 32.0, 14.0, 0
235, 34.0, 14.0, 0
236, 36.0, 14.0, 0
237, 38.0, 14.0, 0
238, 40.0, 14.0, 0
239, 42.0, 14.0, 0
240, 44.0, 14.0, 0
241, 46.0, 14.0, 0
242, 48.0, 14.0, 0
243, 50.0, 14.0, 0
244, 52.0, 14.0, 0
245, 54.0, 14.0, 0
246, 56.0, 14.0, 0
247, 58.0, 14.0, 0
248, 60.0, 14.0, 0
249, 0.0, 16.0, 0
250, 2.0, 16.0, 0
251, 4.0, 16.0, 0
252, 6.0, 16.0, 0
253, 8.0, 16.0, 0
254, 10.0, 16.0, 0
255, 12.0, 16.0, 0
256, 14.0, 16.0, 0
257, 16.0, 16.0, 0
258, 18.0, 16.0, 0
259, 20.0, 16.0, 0
260, 22.0, 16.0, 0
261, 24.0, 16.0, 0
262, 26.0, 16.0, 0
263, 28.0, 16.0, 0
264, 30.0, 16.0, 0
265, 32.0, 16.0, 0
266, 34.0, 16.0, 0
267, 36.0, 16.0, 0
268, 38.0, 16.0, 0
269, 40.0, 16.0, 0
270, 42.0, 16.0, 0
271, 44.0, 16.0, 0
272, 46.0, 16.0, 0
273, 48.0, 16.0, 0
274, 50.0, 16.0, 0
275, 52.0, 16.0, 0
276, 54.0, 16.0, 0
277, 56.0, 16.0, 0
278, 58.0, 16.0, 0
279, 60.0, 16.0, 0
280, 0.0, 18.0, 0
281, 2.0, 18.0, 0
282, 4.0, 18.0, 0
283, 6.0, 18.0, 0
284, 8.0, 18.0, 0
285, 10.0, 18.0, 0
286, 12.0, 18.0, 0
287, 14.0, 18.0, 0
288, 16.0, 18.0, 0
289, 18.0, 18.0, 0
290, 20.0, 18.0, 0
291, 22.0, 18.0, 0
292, 24.0, 18.0, 0
293, 26.0, 18.0, 0
294, 28.0, 18.0, 0
295, 30.0, 18.0, 0
296, 32.0, 18.0, 0
297, 34.0, 18.0, 0
298, 36.0, 18.0, 0
299, 38.0, 18.0, 0
300, 40.0, 18.0, 0
301, 42.0, 18.0, 0
302, 44.0, 18.0, 0
303, 46.0, 18.0, 0
304, 48.0, 18.0, 0
305, 50.0, 18.0, 0
306, 52.0, 18.0, 0
307, 54.0, 18.0, 0
308, 56.0, 18.0, 0
309, 58.0, 18.0, 0
310, 60.0, 18.0, 0
311, 0.0, 20.0, 0
312, 2.0, 20.0, 0
313, 4.0, 20.0, 0
314, 6.0, 20.0, 0
315, 8.0, 20.0, 0
316, 10.0, 20.0, 0
317, 12.0, 20.0, 0
318, 14.0, 20.0, 0
319, 16.0, 20.0, 0
320, 18.0, 20.0, 0
321, 20.0, 20.0, 0
322, 22.0, 20.0, 0
323, 24.0, 20.0, 0
324, 26.0, 20.0, 0
325, 28.0, 20.0, 0
326, 30.0, 20.0, 0
327, 32.0, 20.0, 0
328, 34.0, 20.0, 0
329, 36.0, 20.0, 0
330, 38.0, 20.0, 0
331, 40.0, 20.0, 0
332, 42.0, 20.0, 0
333, 44.0, 20.0, 0
334, 46.0, 20.0, 0
335, 48.0, 20.0, 0
336, 50.0, 20.0, 0
337, 52.0, 20.0, 0
338, 54.0, 20.0, 0
339, 56.0, 20.0, 0
340, 58.0, 20.0, 0
341, 60.0, 20.0, 0
342, 0.0, 22.0, 0
343, 2.0, 22.0, 0
344, 4.0, 22.0, 0
345, 6.0, 22.0, 0
346, 8.0, 22.0, 0
347, 10.0, 22.0, 0
348, 12.0, 22.0, 0
349, 14.0, 22.0, 0
350, 16.0, 22.0, 0
351, 18.0, 22.0, 0
352, 20.0, 22.0, 0
353, 22.0, 22.0, 0
354, 24.0, 22.0, 0
355, 26.0, 22.0, 0
356, 28.0, 22.0, 0
357, 30.0, 22.0, 0
358, 32.0, 22.0, 0
359, 34.0, 22.0, 0
360, 36.0, 22.0, 0
361, 38.0, 22.0, 0
362, 40.0, 22.0, 0
363, 42.0, 22.0, 0
364, 44.0, 22.0, 0
365, 46.0, 22.0, 0
366, 48.0, 22.0, 0
367, 50.0, 22.0, 0
368, 52.0, 22.0, 0
369, 54.0, 22.0, 0
370, 56.0, 22.0, 0
371, 58.0, 22.0, 0
372, 60.0, 22.0, 0
373, 0.0, 24.0, 0
374, 2.0, 24.0, 0
375, 4.0, 24.0, 0
376, 6.0, 24.0, 0
377, 8.0, 24.0, 0
378, 10.0, 24.0, 0
379, 12.0, 24.0, 0
380, 14.0, 24.0, 0
381, 16.0, 24.0, 0
382, 18.0, 24.0, 0
383, 20.0, 24.0, 0
384, 22.0, 24.0, 0
385, 24.0, 24.0, 0
386, 26.0, 24.0, 0
387, 28.0, 24.0, 0
388, 30.0, 24.0, 0
389, 32.0, 24.0, 0
390, 34.0, 24.0, 0
391, 36.0, 24.0, 0
392, 38.0, 24.0, 0
393, 40.0, 24.0, 0
394, 42.0, 24.0, 0
395, 44.0, 24.0, 0
396, 46.0, 24.0, 0
397, 48.0, 24.0, 0
398, 50.0, 24.0, 0
399, 52.0, 24.0, 0
400, 54.0, 24.0, 0
401, 56.0, 24.0, 0
402, 58.0, 24.0, 0
403, 60.0, 24.0, 0
404, 0.0, 26.0, 0
405, 2.0, 26.0, 0
406, 4.0, 26.0, 0
407, 6.0, 26.0, 0
408, 8.0, 26.0, 0
409, 10.0, 26.0, 0
410, 12.0, 26.0, 0
411, 14.0, 26.0, 0
412, 16.0, 26.0, 0
413, 18.0, 26.0, 0
414, 20.0, 26.0, 0
415, 22.0, 26.0, 0
416, 24.0, 26.0, 0
417, 26.0, 26.0, 0
418, 28.0, 26.0, 0
419, 30.0, 26.0, 0
420, 32.0, 26.0, 0
421, 34.0, 26.0, 0
422, 36.0, 26.0, 0
423, 38.0, 26.0, 0
424, 40.0, 26.0, 0
425, 42.0, 26.0, 0
426, 44.0, 26.0, 0
427, 46.0, 26.0, 0
428, 48.0, 26.0, 0
429, 50.0, 26.0, 0
430, 52.0, 26.0, 0
431, 54.0, 26.0, 0
432, 56.0, 26.0, 0
433, 58.0, 26.0, 0
434, 60.0, 26.0, 0
435, 0.0, 28.0, 0
436, 2.0, 28.0, 0
437, 4.0, 28.0, 0
438, 6.0, 28.0, 0
439, 8.0, 28.0, 0
440, 10.0, 28.0, 0
441, 12.0, 28.0, 0
442, 14.0, 28.0, 0
443, 16.0, 28.0, 0
444, 18.0, 28.0, 0
445, 20.0, 28.0, 0
446, 22.0, 28.0, 0
447, 24.0, 28.0, 0
448, 26.0, 28.0, 0
449, 28.0, 28.0, 0
450, 30.0, 28.0, 0
451, 32.0, 28.0, 0
452, 34.0, 28.0, 0
453, 36.0, 28.0, 0
454, 38.0, 28.0, 0
455, 40.0, 28.0, 0
456, 42.0, 28.0, 0
457, 44.0, 28.0, 0
458, 46.0, 28.0, 0
459, 48.0, 28.0, 0
460, 50.0, 28.0, 0
461, 52.0, 28.0, 0
462, 54.0, 28.0, 0
463, 56.0, 28.0, 0
464, 58.0, 28.0, 0
465, 60.0, 28.0, 0
466, 0.0, 30.0, 0
467, 2.0, 30.0, 0
468, 4.0, 30.0, 0
469, 6.0, 30.0, 0
470, 8.0, 30.0, 0
471, 10.0, 30.0, 0
472, 12.0, 30.0, 0
473, 14.0, 30.0, 0
474, 16.0, 30.0, 0
475, 18.0, 30.0, 0
476, 20.0, 30.0, 0
477, 22.0, 30.0, 0
478, 24.0, 30.0, 0
479, 26.0, 30.0, 0
480, 28.0, 30.0, 0
481, 30.0, 30.0, 0
482, 32.0, 30.0, 0
483, 34.0, 30.0, 0
484, 36.0, 30.0, 0
485, 38.0, 30.0, 0
486, 40.0, 30.0, 0
487, 42.0, 30.0, 0
488, 44.0, 30.0, 0
489, 46.0, 30.0, 0
490, 48.0, 30.0, 0
491, 50.0, 30.0, 0
492, 52.0, 30.0, 0
493, 54.0, 30.0, 0
494, 56.0, 30.0, 0
495, 58.0, 30.0, 0
496, 60.0, 30.0, 0
497, 0.0, 32.0, 0
498, 2.0, 32.0, 0
499, 4.0, 32.0, 0
500, 6.0, 32.0, 0
501, 8.0, 32.0, 0
502, 10.0, 32.0, 0
503, 12.0, 32.0, 0
504, 14.0, 32.0, 0
505, 16.0, 32.0, 0
506, 18.0, 32.0, 0
507, 20.0, 32.0, 0
508, 22.0, 32.0, 0
509, 24.0, 32.0, 0
510, 26.0, 32.0, 0
511, 28.0, 32.0, 0
512, 30.0, 32.0, 0
513, 32.0, 32.0, 0
514, 34.0, 32.0, 0
515, 36.0, 32.0, 0
516, 38.0, 32.0, 0
517, 40.0, 32.0, 0
518, 42.0, 32.0, 0
519, 44.0, 32.0, 0
520, 46.0, 32.0, 0
521, 48.0, 32.0, 0
522, 50.0, 32.0, 0
523, 52.0, 32.0, 0
524, 54.0, 32.0, 0
525, 56.0, 32.0, 0
526, 58.0, 32.0, 0
527, 60.0, 32.0, 0
528, 0.0, 34.0, 0
529, 2.0, 34.0, 0
530, 4.0, 34.0, 0
531, 6.0, 34.0, 0
532, 8.0, 34.0, 0
533, 10.0, 34.0, 0
534, 12.0, 34.0, 0
535, 14.0, 34.0, 0
536, 16.0, 34.0, 0
537, 18.0, 34.0, 0
538, 20.0, 34.0, 0
539, 22.0, 34.0, 0
540, 24.0, 34.0, 0
541, 26.0, 34.0, 0
542, 28.0, 34.0, 0
543, 30.0, 34.0, 0
544, 32.0, 34.0, 0
545, 34.0, 34.0, 0
546, 36.0, 34.0, 0
547, 38.0, 34.0, 0
548, 40.0, 34.0, 0
549, 42.0, 34.0, 0
550, 44.0, 34.0, 0
551, 46.0, 34.0, 0
552, 48.0, 34.0, 0
553, 50.0, 34.0, 0
554, 52.0, 34.0, 0
555, 54.0, 34.0, 0
556, 56.0, 34.0, 0
557, 58.0, 34.0, 0
558, 60.0, 34.0, 0
559, 0.0, 36.0, 0
560, 2.0, 36.0, 0
561, 4.0, 36.0, 0
562, 6.0, 36.0, 0
563, 8.0, 36.0, 0
564, 10.0, 36.0, 0
565, 12.0, 36.0, 0
566, 14.0, 36.0, 0
567, 16.0, 36.0, 0
568, 18.0, 36.0, 0
569, 20.0, 36.0, 0
570, 22.0, 36.0, 0
571, 24.0, 36.0, 0
572, 26.0, 36.0, 0
573, 28.0, 36.0, 0
574, 30.0, 36.0, 0
575, 32.0, 36.0, 0
576, 34.0, 36.0, 0
577, 36.0, 36.0, 0
578, 38.0, 36.0, 0
579, 40.0, 36.0, 0
580, 42.0, 36.0, 0
581, 44.0, 36.0, 0
582, 46.0, 36.0, 0
583, 48.0, 36.0, 0
584, 50.0, 36.0, 0
585, 52.0, 36.0, 0
586, 54.0, 36.0, 0
587, 56.0, 36.0, 0
588, 58.0, 36.0, 0
589, 60.0, 36.0, 0
590, 0.0, 38.0, 0
591, 2.0, 38.0, 0
592, 4.0, 38.0, 0
593, 6.0, 38.0, 0
594, 8.0, 38.0, 0
595, 10.0, 38.0, 0
596, 12.0, 38.0, 0
597, 14.0, 38.0, 0
598, 16.0, 38.0, 0
599, 18.0, 38.0, 0
600, 20.0, 38.0, 0
601, 22.0, 38.0, 0
602, 24.0, 38.0, 0
603, 26.0, 38.0, 0
604, 28.0, 38.0, 0
605, 30.0, 38.0, 0
606, 32.0, 38.0, 0
607, 34.0, 38.0, 0
608, 36.0, 38.0, 0
609, 38.0, 38.0, 0
610, 40.0, 38.0, 0
611, 42.0, 38.0, 0
612, 44.0, 38.0, 0
613, 46.0, 38.0, 0
614, 48.0, 38.0, 0
615, 50.0, 38.0, 0
616, 52.0, 38.0, 0
617, 54.0, 38.0, 0
618, 56.0, 38.0, 0
619, 58.0, 38.0, 0
620, 60.0, 38.0, 0
621, 0.0, 40.0, 0
622, 2.0, 40.0, 0
623, 4.0, 40.0, 0
624, 6.0, 40.0, 0
625, 8.0, 40.0, 0
626, 10.0, 40.0, 0
627, 12.0, 40.0, 0
628, 14.0, 40.0, 0
629, 16.0, 40.0, 0
630, 18.0, 40.0, 0
631, 20.0, 40.0, 0
632, 22.0, 40.0, 0
633, 24.0, 40.0, 0
634, 26.0, 40.0, 0
635, 28.0, 40.0, 0
636, 30.0, 40.0, 0
637, 32.0, 40.0, 0
638, 34.0, 40.0, 0
639, 36.0, 40.0, 0
640, 38.0, 40.0, 0
641, 40.0, 40.0, 0
642, 42.0, 40.0, 0
643, 44.0, 40.0, 0
644, 46.0, 40.0, 0
645, 48.0, 40.0, 0
646, 50.0, 40.0, 0
647, 52.0, 40.0, 0
648, 54.0, 40.0, 0
649, 56.0, 40.0, 0
650, 58.0, 40.0, 0
651, 60.0, 40.0, 0
652, 0.0, 42.0, 0
653, 2.0, 42.0, 0
654, 4.0, 42.0, 0
655, 6.0, 42.0, 0
656, 8.0, 42.0, 0
657, 10.0, 42.0, 0
658, 12.0, 42.0, 0
659, 14.0, 42.0, 0
660, 16.0, 42.0, 0
661, 18.0, 42.0, 0
662, 20.0, 42.0, 0
663, 22.0, 42.0, 0
664, 24.0, 42.0, 0
665, 26.0, 42.0, 0
666, 28.0, 42.0, 0
667, 30.0, 42.0, 0
668, 32.0, 42.0, 0
669, 34.0, 42.0, 0
670, 36.0, 42.0, 0
671, 38.0, 42.0, 0
672, 40.0, 42.0, 0
673, 42.0, 42.0, 0
674, 44.0, 42.0, 0
675, 46.0, 42.0, 0
676, 48.0, 42.0, 0
677, 50.0, 42.0, 0
678, 52.0, 42.0, 0
679, 54.0, 42.0, 0
680, 56.0, 42.0, 0
681, 58.0, 42.0, 0
682, 60.0, 42.0, 0
683, 0.0, 44.0, 0
684, 2.0, 44.0, 0
685, 4.0, 44.0, 0
686, 6.0, 44.0, 0
687, 8.0, 44.0, 0
688, 10.0, 44.0, 0
689, 12.0, 44.0, 0
690, 14.0, 44.0, 0
691, 16.0, 44.0, 0
692, 18.0, 44.0, 0
693, 20.0, 44.0, 0
694, 22.0, 44.0, 0
695, 24.0, 44.0, 0
696, 26.0, 44.0, 0
697, 28.0, 44.0, 0
698, 30.0, 44.0, 0
699, 32.0, 44.0, 0
700, 34.0, 44.0, 0
701, 36.0, 44.0, 0
702, 38.0, 44.0, 0
703, 40.0, 44.0, 0
704, 42.0, 44.0, 0
705, 44.0, 44.0, 0
706, 46.0, 44.0, 0
707, 48.0, 44.0, 0
708, 50.0, 44.0, 0
709, 52.0, 44.0, 0
710, 54.0, 44.0, 0
711, 56.0, 44.0, 0
712, 58.0, 44.0, 0
713, 60.0, 44.0, 0
714, 0.0, 46.0, 0
715, 2.0, 46.0, 0
716, 4.0, 46.0, 0
717, 6.0, 46.0, 0
718, 8.0, 46.0, 0
719, 10.0, 46.0, 0
720, 12.0, 46.0, 0
721, 14.0, 46.0, 0
722, 16.0, 46.0, 0
723, 18.0, 46.0, 0
724, 20.0, 46.0, 0
725, 22.0, 46.0, 0
726, 24.0, 46.0, 0
727, 26.0, 46.0, 0
728, 28.0, 46.0, 0
729, 30.0, 46.0, 0
730, 32.0, 46.0, 0
731, 34.0, 46.0, 0
732, 36.0, 46.0, 0
733, 38.0, 46.0, 0
734, 40.0, 46.0, 0
735, 42.0, 46.0, 0
736, 44.0, 46.0, 0
737, 46.0, 46.0, 0
738, 48.0, 46.0, 0
739, 50.0, 46.0, 0
740, 52.0, 46.0, 0
741, 54.0, 46.0, 0
742, 56.0, 46.0, 0
743, 58.0, 46.0, 0
744, 60.0, 46.0, 0
745, 0.0, 48.0, 0
746, 2.0, 48.0, 0
747, 4.0, 48.0, 0
748, 6.0, 48.0, 0
749, 8.0, 48.0, 0
750, 10.0, 48.0, 0
751, 12.0, 48.0, 0
752, 14.0, 48.0, 0
753, 16.0, 48.0, 0
754, 18.0, 48.0, 0
755, 20.0, 48.0, 0
756, 22.0, 48.0, 0
757, 24.0, 48.0, 0
758, 26.0, 48.0, 0
759, 28.0, 48.0, 0
760, 30.0, 48.0, 0
761, 32.0, 48.0, 0
762, 34.0, 48.0, 0
763, 36.0, 48.0, 0
764, 38.0, 48.0, 0
765, 40.0, 48.0, 0
766, 42.0, 48.0, 0
767, 44.0, 48.0, 0
768, 46.0, 48.0, 0
769, 48.0, 48.0, 0
770, 50.0, 48.0, 0
771, 52.0, 48.0, 0
772, 54.0, 48.0, 0
773, 56.0, 48.0, 0
774, 58.0, 48.0, 0
775, 60.0, 48.0, 0
776, 0.0, 50.0, 0
777, 2.0, 50.0, 0
778, 4.0, 50.0, 0
779, 6.0, 50.0, 0
780, 8.0, 50.0, 0
781, 10.0, 50.0, 0
782, 12.0, 50.0, 0
783, 14.0, 50.0, 0
784, 16.0, 50.0, 0
785, 18.0, 50.0, 0
786, 20.0, 50.0, 0
787, 22.0, 50.0, 0
788, 24.0, 50.0, 0
789, 26.0, 50.0, 0
790, 28.0, 50.0, 0
791, 30.0, 50.0, 0
792, 32.0, 50.0, 0
793, 34.0, 50.0, 0
794, 36.0, 50.0, 0
795, 38.0, 50.0, 0
796, 40.0, 50.0, 0
797, 42.0, 50.0, 0
798, 44.0, 50.0, 0
799, 46.0, 50.0, 0
800, 48.0, 50.0, 0
801, 50.0, 50.0, 0
802, 52.0, 50.0, 0
803, 54.0, 50.0, 0
804, 56.0, 50.0, 0
805, 58.0, 50.0, 0
806, 60.0, 50.0, 0
807, 0.0, 52.0, 0
808, 2.0, 52.0, 0
809, 4.0, 52.0, 0
810, 6.0, 52.0, 0
811, 8.0, 52.0, 0
812, 10.0, 52.0, 0
813, 12.0, 52.0, 0
814, 14.0, 52.0, 0
815, 16.0, 52.0, 0
816, 18.0, 52.0, 0
817, 20.0, 52.0, 0
818, 22.0, 52.0, 0
819, 24.0, 52.0, 0
820, 26.0, 52.0, 0
821, 28.0, 52.0, 0
822, 30.0, 52.0, 0
823, 32.0, 52.0, 0
824, 34.0, 52.0, 0
825, 36.0, 52.0, 0
826, 38.0, 52.0, 0
827, 40.0, 52.0, 0
828, 42.0, 52.0, 0
829, 44.0, 52.0, 0
830, 46.0, 52.0, 0
831, 48.0, 52.0, 0
832, 50.0, 52.0, 0
833, 52.0, 52.0, 0
834, 54.0, 52.0, 0
835, 56.0, 52.0, 0
836, 58.0, 52.0, 0
837, 60.0, 52.0, 0
838, 0.0, 54.0, 0
839, 2.0, 54.0, 0
840, 4.0, 54.0, 0
841, 6.0, 54.0, 0
842, 8.0, 54.0, 0
843, 10.0, 54.0, 0
844, 12.0, 54.0, 0
845, 14.0, 54.0, 0
846, 16.0, 54.0, 0
847, 18.0, 54.0, 0
848, 20.0, 54.0, 0
849, 22.0, 54.0, 0
850, 24.0, 54.0, 0
851, 26.0, 54.0, 0
852, 28.0, 54.0, 0
853, 30.0, 54.0, 0
854, 32.0, 54.0, 0
855, 34.0, 54.0, 0
856, 36.0, 54.0, 0
857, 38.0, 54.0, 0
858, 40.0, 54.0, 0
859, 42.0, 54.0, 0
860, 44.0, 54.0, 0
861, 46.0, 54.0, 0
862, 48.0, 54.0, 0
863, 50.0, 54.0, 0
864, 52.0, 54.0, 0
865, 54.0, 54.0, 0
866, 56.0, 54.0, 0
867, 58.0, 54.0, 0
868, 60.0, 54.0, 0
869, 0.0, 56.0, 0
870, 2.0, 56.0, 0
871, 4.0, 56.0, 0
872, 6.0, 56.0, 0
873, 8.0, 56.0, 0
874, 10.0, 56.0, 0
875, 12.0, 56.0, 0
876, 14.0, 56.0, 0
877, 16.0, 56.0, 0
878, 18.0, 56.0, 0
879, 20.0, 56.0, 0
880, 22.0, 56.0, 0
881, 24.0, 56.0, 0
882, 26.0, 56.0, 0
883, 28.0, 56.0, 0
884, 30.0, 56.0, 0
885, 32.0, 56.0, 0
886, 34.0, 56.0, 0
887, 36.0, 56.0, 0
888, 38.0, 56.0, 0
889, 40.0, 56.0, 0
890, 42.0, 56.0, 0
891, 44.0, 56.0, 0
892, 46.0, 56.0, 0
893, 48.0, 56.0, 0
894, 50.0, 56.0, 0
895, 52.0, 56.0, 0
896, 54.0, 56.0, 0
897, 56.0, 56.0, 0
898, 58.0, 56.0, 0
899, 60.0, 56.0, 0
900, 0.0, 58.0, 0
901, 2.0, 58.0, 0
902, 4.0, 58.0, 0
903, 6.0, 58.0, 0
904, 8.0, 58.0, 0
905, 10.0, 58.0, 0
906, 12.0, 58.0, 0
907, 14.0, 58.0, 0
908, 16.0, 58.0, 0
909, 18.0, 58.0, 0
910, 20.0, 58.0, 0
911, 22.0, 58.0, 0
912, 24.0, 58.0, 0
913, 26.0, 58.0, 0
914, 28.0, 58.0, 0
915, 30.0, 58.0, 0
916, 32.0, 58.0, 0
917, 34.0, 58.0, 0
918, 36.0, 58.0, 0
919, 38.0, 58.0, 0
920, 40.0, 58.0, 0
921, 42.0, 58.0, 0
922, 44.0, 58.0, 0
923, 46.0, 58.0, 0
924, 48.0, 58.0, 0
925, 50.0, 58.0, 0
926, 52.0, 58.0, 0
927, 54.0, 58.0, 0
928, 56.0, 58.0, 0
929, 58.0, 58.0, 0
930, 60.0, 58.0, 0
931, 0.0, 60.0, 0
932, 2.0, 60.0, 0
933, 4.0, 60.0, 0
934, 6.0, 60.0, 0
935, 8.0, 60.0, 0
936, 10.0, 60.0, 0
937, 12.0, 60.0, 0
938, 14.0, 60.0, 0
939, 16.0, 60.0, 0
940, 18.0, 60.0, 0
941, 20.0, 60.0, 0
942, 22.0, 60.0, 0
943, 24.0, 60.0, 0
944, 26.0, 60.0, 0
945, 28.0, 60.0, 0
946, 30.0, 60.0, 0
947, 32.0, 60.0, 0
948, 34.0, 60.0, 0
949, 36.0, 60.0, 0
950, 38.0, 60.0, 0
951, 40.0, 60.0, 0
952, 42.0, 60.0, 0
953, 44.0, 60.0, 0
954, 46.0, 60.0, 0
955, 48.0, 60.0, 0
956, 50.0, 60.0, 0
957, 52.0, 60.0, 0
958, 54.0, 60.0, 0
959, 56.0, 60.0, 0
960, 58.0, 60.0, 0
961, 60.0, 60.0, 0
962, 0.0, 62.0, 0
963, 2.0, 62.0, 0
964, 4.0, 62.0, 0
965, 6.0, 62.0, 0
966, 8.0, 62.0, 0
967, 10.0, 62.0, 0
968, 12.0, 62.0, 0
969, 14.0, 62.0, 0
970, 16.0, 62.0, 0
971, 18.0, 62.0, 0
972, 20.0, 62.0, 0
973, 22.0, 62.0, 0
974, 24.0, 62.0, 0
975, 26.0, 62.0, 0
976, 28.0, 62.0, 0
977, 30.0, 62.0, 0
978, 32.0, 62.0, 0
979, 34.0, 62.0, 0
980, 36.0, 62.0, 0
981, 38.0, 62.0, 0
982, 40.0, 62.0, 0
983, 42.0, 62.0, 0
984, 44.0, 62.0, 0
985, 46.0, 62.0, 0
986, 48.0, 62.0, 0
987, 50.0, 62.0, 0
988, 52.0, 62.0, 0
989, 54.0, 62.0, 0
990, 56.0, 62.0, 0
991, 58.0, 62.0, 0
992, 60.0, 62.0, 0
993, 0.0, 64.0, 0
994, 2.0, 64.0, 0
995, 4.0, 64.0, 0
996, 6.0, 64.0, 0
997, 8.0, 64.0, 0
998, 10.0, 64.0, 0
999, 12.0, 64.0, 0
1000, 14.0, 64.0, 0
1001, 16.0, 64.0, 0
1002, 18.0, 64.0, 0
1003, 20.0, 64.0, 0
1004, 22.0, 64.0, 0
1005, 24.0, 64.0, 0
1006, 26.0, 64.0, 0
1007, 28.0, 64.0, 0
1008, 30.0, 64.0, 0
1009, 32.0, 64.0, 0
1010, 34.0, 64.0, 0
1011, 36.0, 64.0, 0
1012, 38.0, 64.0, 0
1013, 40.0, 64.0, 0
1014, 42.0, 64.0, 0
1015, 44.0, 64.0, 0
1016, 46.0, 64.0, 0
1017, 48.0, 64.0, 0
1018, 50.0, 64.0, 0
1019, 52.0, 64.0, 0
1020, 54.0, 64.0, 0
1021, 56.0, 64.0, 0
1022, 58.0, 64.0, 0
1023, 60.0, 64.0, 0
1024, 0.0, 66.0, 0
1025, 2.0, 66.0, 0
1026, 4.0, 66.0, 0
1027, 6.0, 66.0, 0
1028, 8.0, 66.0, 0
1029, 10.0, 66.0, 0
1030, 12.0, 66.0, 0
1031, 14.0, 66.0, 0
1032, 16.0, 66.0, 0
1033, 18.0, 66.0, 0
1034, 20.0, 66.0, 0
1035, 22.0, 66.0, 0
1036, 24.0, 66.0, 0
1037, 26.0, 66.0, 0
1038, 28.0, 66.0, 0
1039, 30.0, 66.0, 0
1040, 32.0, 66.0, 0
1041, 34.0, 66.0, 0
1042, 36.0, 66.0, 0
1043, 38.0, 66.0, 0
1044, 40.0, 66.0, 0
1045, 42.0, 66.0, 0
1046, 44.0, 66.0, 0
1047, 46.0, 66.0, 0
1048, 48.0, 66.0, 0
1049, 50.0, 66.0, 0
1050, 52.0, 66.0, 0
1051, 54.0, 66.0, 0
1052, 56.0, 66.0, 0
1053, 58.0, 66.0, 0
1054, 60.0, 66.0, 0
1055, 0.0, 68.0, 0
1056, 2.0, 68.0, 0
1057, 4.0, 68.0, 0
1058, 6.0, 68.0, 0
1059, 8.0, 68.0, 0
1060, 10.0, 68.0, 0
1061, 12.0, 68.0, 0
1062, 14.0, 68.0, 0
1063, 16.0, 68.0, 0
1064, 18.0, 68.0, 0
1065, 20.0, 68.0, 0
1066, 22.0, 68.0, 0
1067, 24.0, 68.0, 0
1068, 26.0, 68.0, 0
1069, 28.0, 68.0, 0
1070, 30.0, 68.0, 0
1071, 32.0, 68.0, 0
1072, 34.0, 68.0, 0
1073, 36.0, 68.0, 0
1074, 38.0, 68.0, 0
1075, 40.0, 68.0, 0
1076, 42.0, 68.0, 0
1077, 44.0, 68.0, 0
1078, 46.0, 68.0, 0
1079, 48.0, 68.0, 0
1080, 50.0, 68.0, 0
1081, 52.0, 68.0, 0
1082, 54.0, 68.0, 0
1083, 56.0, 68.0, 0
1084, 58.0, 68.0, 0
1085, 60.0, 68.0, 0
1086, 0.0, 70.0, 0
1087, 2.0, 70.0, 0
1088, 4.0, 70.0, 0
1089, 6.0, 70.0, 0
1090, 8.0, 70.0, 0
1091, 10.0, 70.0, 0
1092, 12.0, 70.0, 0
1093, 14.0, 70.0, 0
1094, 16.0, 70.0, 0
1095, 18.0, 70.0, 0
1096, 20.0, 70.0, 0
1097, 22.0, 70.0, 0
1098, 24.0, 70.0, 0
1099, 26.0, 70.0, 0
1100, 28.0, 70.0, 0
1101, 30.0, 70.0, 0
1102, 32.0, 70.0, 0
1103, 34.0, 70.0, 0
1104, 36.0, 70.0, 0
1105, 38.0, 70.0, 0
1106, 40.0, 70.0, 0
1107, 42.0, 70.0, 0
1108, 44.0, 70.0, 0
1109, 46.0, 70.0, 0
1110, 48.0, 70.0, 0
1111, 50.0, 70.0, 0
1112, 52.0, 70.0, 0
1113, 54.0, 70.0, 0
1114, 56.0, 70.0, 0
1115, 58.0, 70.0, 0
1116, 60.0, 70.0, 0
1117, 0.0, 72.0, 0
1118, 2.0, 72.0, 0
1119, 4.0, 72.0, 0
1120, 6.0, 72.0, 0
1121, 8.0, 72.0, 0
1122, 10.0, 72.0, 0
1123, 12.0, 72.0, 0
1124, 14.0, 72.0, 0
1125, 16.0, 72.0, 0
1126, 18.0, 72.0, 0
1127, 20.0, 72.0, 0
1128, 22.0, 72.0, 0
1129, 24.0, 72.0, 0
1130, 26.0, 72.0, 0
1131, 28.0, 72.0, 0
1132, 30.0, 72.0, 0
1133, 32.0, 72.0, 0
1134, 34.0, 72.0, 0
1135, 36.0, 72.0, 0
1136, 38.0, 72.0, 0
1137, 40.0, 72.0, 0
1138, 42.0, 72.0, 0
1139, 44.0, 72.0, 0
1140, 46.0, 72.0, 0
1141, 48.0, 72.0, 0
1142, 50.0, 72.0, 0
1143, 52.0, 72.0, 0
1144, 54.0, 72.0, 0
1145, 56.0, 72.0, 0
1146, 58.0, 72.0, 0
1147, 60.0, 72.0, 0
1148, 0.0, 74.0, 0
1149, 2.0, 74.0, 0
1150, 4.0, 74.0, 0
1151, 6.0, 74.0, 0
1152, 8.0, 74.0, 0
1153, 10.0, 74.0, 0
1154, 12.0, 74.0, 0
1155, 14.0, 74.0, 0
1156, 16.0, 74.0, 0
1157, 18.0, 74.0, 0
1158, 20.0, 74.0, 0
1159, 22.0, 74.0, 0
1160, 24.0, 74.0, 0
1161, 26.0, 74.0, 0
1162, 28.0, 74.0, 0
1163, 30.0, 74.0, 0
1164, 32.0, 74.0, 0
1165, 34.0, 74.0, 0
1166, 36.0, 74.0, 0
1167, 38.0, 74.0, 0
1168, 40.0, 74.0, 0
1169, 42.0, 74.0, 0
1170, 44.0, 74.0, 0
1171, 46.0, 74.0, 0
1172, 48.0, 74.0, 0
1173, 50.0, 74.0, 0
1174, 52.0, 74.0, 0
1175, 54.0, 74.0, 0
1176, 56.0, 74.0, 0
1177, 58.0, 74.0, 0
1178, 60.0, 74.0, 0
1179, 0.0, 76.0, 0
1180, 2.0, 76.0, 0
1181, 4.0, 76.0, 0
1182, 6.0, 76.0, 0
1183, 8.0, 76.0, 0
1184, 10.0, 76.0, 0
1185, 12.0, 76.0, 0
1186, 14.0, 76.0, 0
1187, 16.0, 76.0, 0
1188, 18.0, 76.0, 0
1189, 20.0, 76.0, 0
1190, 22.0, 76.0, 0
1191, 24.0, 76.0, 0
1192, 26.0, 76.0, 0
1193, 28.0, 76.0, 0
1194, 30.0, 76.0, 0
1195, 32.0, 76.0, 0
1196, 34.0, 76.0, 0
1197, 36.0, 76.0, 0
1198, 38.0, 76.0, 0
1199, 40.0, 76.0, 0
1200, 42.0, 76.0, 0
1201, 44.0, 76.0, 0
1202, 46.0, 76.0, 0
1203, 48.0, 76.0, 0
1204, 50.0, 76.0, 0
1205, 52.0, 76.0, 0
1206, 54.0, 76.0, 0
1207, 56.0, 76.0, 0
1208, 58.0, 76.0, 0
1209, 60.0, 76.0, 0
1210, 0.0, 78.0, 0
1211, 2.0, 78.0, 0
1212, 4.0, 78.0, 0
1213, 6.0, 78.0, 0
1214, 8.0, 78.0, 0
1215, 10.0, 78.0, 0
1216, 12.0, 78.0, 0
1217, 14.0, 78.0, 0
1218, 16.0, 78.0, 0
1219, 18.0, 78.0, 0
1220, 20.0, 78.0, 0
1221, 22.0, 78.0, 0
1222, 24.0, 78.0, 0
1223, 26.0, 78.0, 0
1224, 28.0, 78.0, 0
1225, 30.0, 78.0, 0
1226, 32.0, 78.0, 0
1227, 34.0, 78.0, 0
1228, 36.0, 78.0, 0
1229, 38.0, 78.0, 0
1230, 40.0, 78.0, 0
1231, 42.0, 78.0, 0
1232, 44.0, 78.0, 0
1233, 46.0, 78.0, 0
1234, 48.0, 78.0, 0
1235, 50.0, 78.0, 0
1236, 52.0, 78.0, 0
1237, 54.0, 78.0, 0
1238, 56.0, 78.0, 0
1239, 58.0, 78.0, 0
1240, 60.0, 78.0, 0
1241, 0.0, 80.0, 0
1242, 2.0, 80.0, 0
1243, 4.0, 80.0, 0
1244, 6.0, 80.0, 0
1245, 8.0, 80.0, 0
1246, 10.0, 80.0, 0
1247, 12.0, 80.0, 0
1248, 14.0, 80.0, 0
1249, 16.0, 80.0, 0
1250, 18.0, 80.0, 0
1251, 20.0, 80.0, 0
1252, 22.0, 80.0, 0
1253, 24.0, 80.0, 0
1254, 26.0, 80.0, 0
1255, 28.0, 80.0, 0
1256, 30.0, 80.0, 0
1257, 32.0, 80.0, 0
1258, 34.0, 80.0, 0
1259, 36.0, 80.0, 0
1260, 38.0, 80.0, 0
1261, 40.0, 80.0, 0
1262, 42.0, 80.0, 0
1263, 44.0, 80.0, 0
1264, 46.0, 80.0, 0
1265, 48.0, 80.0, 0
1266, 50.0, 80.0, 0
1267, 52.0, 80.0, 0
1268, 54.0, 80.0, 0
1269, 56.0, 80.0, 0
1270, 58.0, 80.0, 0
1271, 60.0, 80.0, 0
1272, 0.0, 82.0, 0
1273, 2.0, 82.0, 0
1274, 4.0, 82.0, 0
1275, 6.0, 82.0, 0
1276, 8.0, 82.0, 0
1277, 10.0, 82.0, 0
1278, 12.0, 82.0, 0
1279, 14.0, 82.0, 0
1280, 16.0, 82.0, 0
1281, 18.0, 82.0, 0
1282, 20.0, 82.0, 0
1283, 22.0, 82.0, 0
1284, 24.0, 82.0, 0
1285, 26.0, 82.0, 0
1286, 28.0, 82.0, 0
1287, 30.0, 82.0, 0
1288, 32.0, 82.0, 0
1289, 34.0, 82.0, 0
1290, 36.0, 82.0, 0
1291, 38.0, 82.0, 0
1292, 40.0, 82.0, 0
1293, 42.0, 82.0, 0
1294, 44.0, 82.0, 0
1295, 46.0, 82.0, 0
1296, 48.0, 82.0, 0
1297, 50.0, 82.0, 0
1298, 52.0, 82.0, 0
1299, 54.0, 82.0, 0
1300, 56.0, 82.0, 0
1301, 58.0, 82.0, 0
1302, 60.0, 82.0, 0
1303, 0.0, 84.0, 0
1304, 2.0, 84.0, 0
1305, 4.0, 84.0, 0
1306, 6.0, 84.0, 0
1307, 8.0, 84.0, 0
1308, 10.0, 84.0, 0
1309, 12.0, 84.0, 0
1310, 14.0, 84.0, 0
1311, 16.0, 84.0, 0
1312, 18.0, 84.0, 0
1313, 20.0, 84.0, 0
1314, 22.0, 84.0, 0
1315, 24.0, 84.0, 0
1316, 26.0, 84.0, 0
1317, 28.0, 84.0, 0
1318, 30.0, 84.0, 0
1319, 32.0, 84.0, 0
1320, 34.0, 84.0, 0
1321, 36.0, 84.0, 0
1322, 38.0, 84.0, 0
1323, 40.0, 84.0, 0
1324, 42.0, 84.0, 0
1325, 44.0, 84.0, 0
1326, 46.0, 84.0, 0
1327, 48.0, 84.0, 0
1328, 50.0, 84.0, 0
1329, 52.0, 84.0, 0
1330, 54.0, 84.0, 0
1331, 56.0, 84.0, 0
1332, 58.0, 84.0, 0
1333, 60.0, 84.0, 0
1334, 0.0, 86.0, 0
1335, 2.0, 86.0, 0
1336, 4.0, 86.0, 0
1337, 6.0, 86.0, 0
1338, 8.0, 86.0, 0
1339, 10.0, 86.0, 0
1340, 12.0, 86.0, 0
1341, 14.0, 86.0, 0
1342, 16.0, 86.0, 0
1343, 18.0, 86.0, 0
1344, 20.0, 86.0, 0
1345, 22.0, 86.0, 0
1346, 24.0, 86.0, 0
1347, 26.0, 86.0, 0
1348, 28.0, 86.0, 0
1349, 30.0, 86.0, 0
1350, 32.0, 86.0, 0
1351, 34.0, 86.0, 0
1352, 36.0, 86.0, 0
1353, 38.0, 86.0, 0
1354, 40.0, 86.0, 0
1355, 42.0, 86.0, 0
1356, 44.0, 86.0, 0
1357, 46.0, 86.0, 0
1358, 48.0, 86.0, 0
1359, 50.0, 86.0, 0
1360, 52.0, 86.0, 0
1361, 54.0, 86.0, 0
1362, 56.0, 86.0, 0
1363, 58.0, 86.0, 0
1364, 60.0, 86.0, 0
1365, 0.0, 88.0, 0
1366, 2.0, 88.0, 0
1367, 4.0, 88.0, 0
1368, 6.0, 88.0, 0
1369, 8.0, 88.0, 0
1370, 10.0, 88.0, 0
1371, 12.0, 88.0, 0
1372, 14.0, 88.0, 0
1373, 16.0, 88.0, 0
1374, 18.0, 88.0, 0
1375, 20.0, 88.0, 0
1376, 22.0, 88.0, 0
1377, 24.0, 88.0, 0
1378, 26.0, 88.0, 0
1379, 28.0, 88.0, 0
1380, 30.0, 88.0, 0
1381, 32.0, 88.0, 0
1382, 34.0, 88.0, 0
1383, 36.0, 88.0, 0
1384, 38.0, 88.0, 0
1385, 40.0, 88.0, 0
1386, 42.0, 88.0, 0
1387, 44.0, 88.0, 0
1388, 46.0, 88.0, 0
1389, 48.0, 88.0, 0
1390, 50.0, 88.0, 0
1391, 52.0, 88.0, 0
1392, 54.0, 88.0, 0
1393, 56.0, 88.0, 0
1394, 58.0, 88.0, 0
1395, 60.0, 88.0, 0
1396, 0.0, 90.0, 0
1397, 2.0, 90.0, 0
1398, 4.0, 90.0, 0
1399, 6.0, 90.0, 0
1400, 8.0, 90.0, 0
1401, 10.0, 90.0, 0
1402, 12.0, 90.0, 0
1403, 14.0, 90.0, 0
1404, 16.0, 90.0, 0
1405, 18.0, 90.0, 0
1406, 20.0, 90.0, 0
1407, 22.0, 90.0, 0
1408, 24.0, 90.0, 0
1409, 26.0, 90.0, 0
1410, 28.0, 90.0, 0
1411, 30.0, 90.0, 0
1412, 32.0, 90.0, 0
1413, 34.0, 90.0, 0
1414, 36.0, 90.0, 0
1415, 38.0, 90.0, 0
1416, 40.0, 90.0, 0
1417, 42.0, 90.0, 0
1418, 44.0, 90.0, 0
1419, 46.0, 90.0, 0
1420, 48.0, 90.0, 0
1421, 50.0, 90.0, 0
1422, 52.0, 90.0, 0
1423, 54.0, 90.0, 0
1424, 56.0, 90.0, 0
1425, 58.0, 90.0, 0
1426, 60.0, 90.0, 0
*ELEMENT,TYPE=CPS4,ELSET=ALL
1,1,2,33,32
2,2,3,34,33
3,3,4,35,34
4,4,5,36,35
5,5,6,37,36
6,6,7,38,37
7,7,8,39,38
8,8,9,40,39
9,9,10,41,40
10,10,11,42,41
11,11,12,43,42
12,12,13,44,43
13,13,14,45,44
14,14,15,46,45
15,15,16,47,46
16,16,17,48,47
17,17,18,49,48
18,18,19,50,49
19,19,20,51,50
20,20,21,52,51
21,21,22,53,52
22,22,23,54,53
23,23,24,55,54
24,24,25,56,55
25,25,26,57,56
26,26,27,58,57
27,27,28,59,58
28,28,29,60,59
29,29,30,61,60
30,30,31,62,61
31,32,33,64,63
32,33,34,65,64
33,34,35,66,65
34,35,36,67,66
35,36,37,68,67
36,37,38,69,68
37,38,39,70,69
38,39,40,71,70
39,40,41,72,71
40,41,42,73,72
41,42,43,74,73
42,43,44,75,74
43,44,45,76,75
44,45,46,77,76
45,46,47,78,77
46,47,48,79,78
47,48,49,80,79
48,49,50,81,80
49,50,51,82,81
50,51,52,83,82
51,52,53,84,83
52,53,54,85,84
53,54,55,86,85
54,55,56,87,86
55,56,57,88,87
56,57,58,89,88
57,58,59,90,89
58,59,60,91,90
59,60,61,92,91
60,61,62,93,92
61,63,64,95,94
62,64,65,96,95
63,65,66,97,96
64,66,67,98,97
65,67,68,99,98
66,68,69,100,99
67,69,70,101,100
68,70,71,102,101
69,71,72,103,102
70,72,73,104,103
71,73,74,105,104
72,74,75,106,105
73,75,76,107,106
74,76,77,108,107
75,77,78,109,108
76,78,79,110,109
77,79,80,111,110
78,80,81,112,111
79,81,82,113,112
80,82,83,114,113
81,83,84,115,114
82,84,85,116,115
83,85,86,117,116
84,86,87,118,117
85,87,88,119,118
86,88,89,120,119
87,89,90,121,120
88,90,91,122,121
89,91,92,123,122
90,92,93,124,123
91,94,95,126,125
92,95,96,127,126
93,96,97,128,127
94,97,98,129,128
95,98,99,130,129
96,99,100,131,130
97,100,101,132,131
98,101,102,133,132
99,102,103,134,133
100,103,104,135,134
101,104,105,136,135
102,105,106,137,136
103,106,107,138,137
104,107,108,139,138
105,108,109,140,139
106,109,110,141,140
107,110,111,142,141
108,111,112,143,142
109,112,113,144,143
110,113,114,145,144
111,114,115,146,145
112,115,116,147,146
113,116,117,148,147
114,117,118,149,148
115,118,119,150,149
116,119,120,151,150
117,120,121,152,151
118,121,122,153,152
119,122,123,154,153
120,123,124,155,154
121,125,126,157,156
122,126,127,158,157
123,127,128,159,158
124,128,129,160,159
125,129,130,161,160
126,130,131,162,161
127,131,132,163,162
128,132,133,164,163
129,133,134,165,164
130,134,135,166,165
131,135,136,167,166
132,136,137,168,167
133,137,138,169,168
134,138,139,170,169
135,139,140,171,170
136,140,141,172,171
137,141,142,173,172
138,142,143,174,173
139,143,144,175,174
140,144,145,176,175
141,145,146,177,176
142,146,147,178,177
143,147,148,179,178
144,148,149,180,179
145,149,150,181,180
146,150,151,182,181
147,151,152,183,182
148,152,153,184,183
149,153,154,185,184
150,154,155,186,185
151,156,157,188,187
152,157,158,189,188
153,158,159,190,189
154,159,160,191,190
155,160,161,192,191
156,161,162,193,192
157,162,163,194,193
158,163,164,195,194
159,164,165,196,195
160,165,166,197,196
161,166,167,198,197
162,167,168,199,198
163,168,169,200,199
164,169,170,201,200
165,170,171,202,201
166,171,172,203,202
167,172,173,204,203
168,173,174,205,204
169,174,175,206,205
170,175,176,207,206
171,176,177,208,207
172,177,178,209,208
173,178,179,210,209
174,179,180,211,210
175,180,181,212,211
176,181,182,213,212
177,182,183,214,213
178,183,184,215,214
179,184,185,216,215
180,185,186,217,216
181,187,188,219,218
182,188,189,220,219
183,189,190,221,220
184,190,191,222,221
185,191,192,223,222
186,192,193,224,223
187,193,194,225,224
188,194,195,226,225
189,195,196,227,226
190,196,197,228,227
191,197,198,229,228
192,198,199,230,229
193,199,200,231,230
194,200,201,232,231
195,201,202,233,232
196,202,203,234,233
197,203,204,235,234
198,204,205,236,235
199,205,206,237,236
200,206,207,238,237
201,207,208,239,238
202,208,209,240,239
203,209,210,241,240
204,210,211,242,241
205,211,212,243,242
206,212,213,244,243
207,213,214,245,244
208,214,215,246,245
209,215,216,247,246
210,216,217,248,247
211,218,219,250,249
212,219,220,251,250
213,220,221,252,251
214,221,222,253,252
215,222,223,254,253
216,223,224,255,254
217,224,225,256,255
218,225,226,257,256
219,226,227,258,257
220,227,228,259,258
221,228,229,260,259
222,229,230,261,260
223,230,231,262,261
224,231,232,263,262
225,232,233,264,263
226,233,234,265,264
227,234,235,266,265
228,235,236,267,266
229,236,237,268,267
230,237,238,269,268
231,238,239,270,269
232,239,240,271,270
233,240,241,272,271
234,241,242,273,272
235,242,243,274,273
236,243,244,275,274
237,244,245,276,275
238,245,246,277,276
239,246,247,278,277
240,247,248,279,278
241,249,250,281,280
242,250,251,282,281
243,251,252,283,282
244,252,253,284,283
245,253,254,285,284
246,254,255,286,285
247,255,256,287,286
248,256,257,288,287
249,257,258,289,288
250,258,259,290,289
251,259,260,291,290
252,260,261,292,291
253,261,262,293,292
254,262,263,294,293
255,263,264,295,294
256,264,265,296,295
257,265,266,297,296
258,266,267,298,297
259,267,268,299,298
260,268,269,300,299
261,269,270,301,300
262,270,271,302,301
263,271,272,303,302
264,272,273,304,303
265,273,274,305,304
266,274,275,306,305
267,275,276,307,306
268,276,277,308,307
269,277,278,309,308
270,278,279,310,309
271,280,281,312,311
272,281,282,313,312
273,282,283,314,313
274,283,284,315,314
275,284,285,316,315
276,285,286,317,316
277,286,287,318,317
278,287,288,319,318
279,288,289,320,319
280,289,290,321,320
281,290,291,322,321
282,291,292,323,322
283,292,293,324,323
284,293,294,325,324
285,294,295,326,325
286,295,296,327,326
287,296,297,328,327
288,297,298,329,328
289,298,299,330,329
290,299,300,331,330
291,300,301,332,331
292,301,302,333,332
293,302,303,334,333
294,303,304,335,334
295,304,305,336,335
296,305,306,337,336
297,306,307,338,337
298,307,308,339,338
299,308,309,340,339
300,309,310,341,340
301,311,312,343,342
302,312,313,344,343
303,313,314,345,344
304,314,315,346,345
305,315,316,347,346
306,316,317,348,347
307,317,318,349,348
308,318,319,350,349
309,319,320,351,350
310,320,321,352,351
311,321,322,353,352
312,322,323,354,353
313,323,324,355,354
314,324,325,356,355
315,325,326,357,356
316,326,327,358,357
317,327,328,359,358
318,328,329,360,359
319,329,330,361,360
320,330,331,362,361
321,331,332,363,362
322,332,333,364,363
323,333,334,365,364
324,334,335,366,365
325,335,336,367,366
326,336,337,368,367
327,337,338,369,368
328,338,339,370,369
329,339,340,371,370
330,340,341,372,371
331,342,343,374,373
332,343,344,375,374
333,344,345,376,375
334,345,346,377,376
335,346,347,378,377
336,347,348,379,378
337,348,349,380,379
338,349,350,381,380
339,350,351,382,381
340,351,352,383,382
341,352,353,384,383
342,353,354,385,384
343,354,355,386,385
344,355,356,387,386
345,356,357,388,387
346,357,358,389,388
347,358,359,390,389
348,359,360,391,390
349,360,361,392,391
350,361,362,393,392
351,362,363,394,393
352,363,364,395,394
353,364,365,396,395
354,365,366,397,396
355,366,367,398,397
356,367,368,399,398
357,368,369,400,399
358,369,370,401,400
359,370,371,402,401
360,371,372,403,402
361,373,374,405,404
362,374,375,406,405
363,375,376,407,406
364,376,377,408,407
365,377,378,409,408
366,378,379,410,409
367,379,380,411,410
368,380,381,412,411
369,381,382,413,412
370,382,383,414,413
371,383,384,415,414
372,384,385,416,415
373,385,386,417,416
374,386,387,418,417
375,387,388,419,418
376,388,389,420,419
377,389,390,421,420
378,390,391,422,421
379,391,392,423,422
380,392,393,424,423
381,393,394,425,424
382,394,395,426,425
383,395,396,427,426
384,396,397,428,427
385,397,398,429,428
386,398,399,430,429
387,399,400,431,430
388,400,401,432,431
389,401,402,433,432
390,402,403,434,433
391,404,405,436,435
392,405,406,437,436
393,406,407,438,437
394,407,408,439,438
395,408,409,440,439
396,409,410,441,440
397,410,411,442,441
398,411,412,443,442
399,412,413,444,443
400,413,414,445,444
401,414,415,446,445
402,415,416,447,446
403,416,417,448,447
404,417,418,449,448
405,418,419,450,449
406,419,420,451,450
407,420,421,452,451
408,421,422,453,452
409,422,423,454,453
410,423,424,455,454
411,424,425,456,455
412,425,426,457,456
413,426,427,458,457
414,427,428,459,458
415,428,429,460,459
416,429,430,461,460
417,430,431,462,461
418,431,432,463,462
419,432,433,464,463
420,433,434,465,464
421,435,436,467,466
422,436,437,468,467
423,437,438,469,468
424,438,439,470,469
425,439,440,471,470
426,440,441,472,471
427,441,442,473,472
428,442,443,474,473
429,443,444,475,474
430,444,445,476,475
431,445,446,477,476
432,446,447,478,477
433,447,448,479,478
434,448,449,480,479
435,449,450,481,480
436,450,451,482,481
437,451,452,483,482
438,452,453,484,483
439,453,454,485,484
440,454,455,486,485
441,455,456,487,486
442,456,457,488,487
443,457,458,489,488
444,458,459,490,489
445,459,460,491,490
446,460,461,492,491
447,461,462,493,492
448,462,463,494,493
449,463,464,495,494
450,464,465,496,495
451,466,467,498,497
452,467,468,499,498
453,468,469,500,499
454,469,470,501,500
455,470,471,502,501
456,471,472,503,502
457,472,473,504,503
458,473,474,505,504
459,474,475,506,505
460,475,476,507,506
461,476,477,508,507
462,477,478,509,508
463,478,479,510,509
464,479,480,511,510
465,480,481,512,511
466,481,482,513,512
467,482,483,514,513
468,483,484,515,514
469,484,485,516,515
470,485,486,517,516
471,486,487,518,517
472,487,488,519,518
473,488,489,520,519
474,489,490,521,520
475,490,491,522,521
476,491,492,523,522
477,492,493,524,523
478,493,494,525,524
479,494,495,526,525
480,495,496,527,526
481,497,498,529,528
482,498,499,530,529
483,499,500,531,530
484,500,501,532,531
485,501,502,533,532
486,502,503,534,533
487,503,504,535,534
488,504,505,536,535
489,505,506,537,536
490,506,507,538,537
491,507,508,539,538
492,508,509,540,539
493,509,510,541,540
494,510,511,542,541
495,511,512,543,542
496,512,513,544,543
497,513,514,545,544
498,514,515,546,545
499,515,516,547,546
500,516,517,548,547
501,517,518,549,548
502,518,519,550,549
503,519,520,551,550
504,520,521,552,551
505,521,522,553,552
506,522,523,554,553
507,523,524,555,554
508,524,525,556,555
509,525,526,557,556
510,526,527,558,557
511,528,529,560,559
512,529,530,561,560
513,530,531,562,561
514,531,532,563,562
515,532,533,564,563
516,533,534,565,564
517,534,535,566,565
518,535,536,567,566
519,536,537,568,567
520,537,538,569,568
521,538,539,570,569
522,539,540,571,570
523,540,541,572,571
524,541,542,573,572
525,542,543,574,573
526,543,544,575,574
527,544,545,576,575
528,545,546,577,576
529,546,547,578,577
530,547,548,579,578
531,548,549,580,579
532,549,550,581,580
533,550,551,582,581
534,551,552,583,582
535,552,553,584,583
536,553,554,585,584
537,554,555,586,585
538,555,556,587,586
539,556,557,588,587
540,557,558,589,588
541,559,560,591,590
542,560,561,592,591
543,561,562,593,592
544,562,563,594,593
545,563,564,595,594
546,564,565,596,595
547,565,566,597,596
548,566,567,598,597
549,567,568,599,598
550,568,569,600,599
551,569,570,601,600
552,570,571,602,601
553,571,572,603,602
554,572,573,604,603
555,573,574,605,604
556,574,575,606,605
557,575,576,607,606
558,576,577,608,607
559,577,578,609,608
560,578,579,610,609
561,579,580,611,610
562,580,581,612,611
563,581,582,613,612
564,582,583,614,613
565,583,584,615,614
566,584,585,616,615
567,585,586,617,616
568,586,587,618,617
569,587,588,619,618
570,588,589,620,619
571,590,591,622,621
572,591,592,623,622
573,592,593,624,623
574,593,594,625,624
575,594,595,626,625
576,595,596,627,626
577,596,597,628,627
578,597,598,629,628
579,598,599,630,629
580,599,600,631,630
581,600,601,632,631
582,601,602,633,632
583,602,603,634,633
584,603,604,635,634
585,604,605,636,635
586,605,606,637,636
587,606,607,638,637
588,607,608,639,638
589,608,609,640,639
590,609,610,641,640
591,610,611,642,641
592,611,612,643,642
593,612,613,644,643
594,613,614,645,644
595,614,615,646,645
596,615,616,647,646
597,616,617,648,647
598,617,618,649,648
599,618,619,650,649
600,619,620,651,650
601,621,622,653,652
602,622,623,654,653
603,623,624,655,654
604,624,625,656,655
605,625,626,657,656
606,626,627,658,657
607,627,628,659,658
608,628,629,660,659
609,629,630,661,660
610,630,631,662,661
611,631,632,663,662
612,632,633,664,663
613,633,634,665,664
614,634,635,666,665
615,635,636,667,666
616,636,637,668,667
617,637,638,669,668
618,638,639,670,669
619,639,640,671,670
620,640,641,672,671
621,641,642,673,672
622,642,643,674,673
623,643,644,675,674
624,644,645,676,675
625,645,646,677,676
626,646,647,678,677
627,647,648,679,678
628,648,649,680,679
629,649,650,681,680
630,650,651,682,681
631,652,653,684,683
632,653,654,685,684
633,654,655,686,685
634,655,656,687,686
635,656,657,688,687
636,657,658,689,688
637,658,659,690,689
638,659,660,691,690
639,660,661,692,691
640,661,662,693,692
641,662,663,694,693
642,663,664,695,694
643,664,665,696,695
644,665,666,697,696
645,666,667,698,697
646,667,668,699,698
647,668,669,700,699
648,669,670,701,700
649,670,671,702,701
650,671,672,703,702
651,672,673,704,703
652,673,674,705,704
653,674,675,706,705
654,675,676,707,706
655,676,677,708,707
656,677,678,709,708
657,678,679,710,709
658,679,680,711,710
659,680,681,712,711
660,681,682,713,712
661,683,684,715,714
662,684,685,716,715
663,685,686,717,716
664,686,687,718,717
665,687,688,719,718
666,688,689,720,719
667,689,690,721,720
668,690,691,722,721
669,691,692,723,722
670,692,693,724,723
671,693,694,725,724
672,694,695,726,725
673,695,696,727,726
674,696,697,728,727
675,697,698,729,728
676,698,699,730,729
677,699,700,731,730
678,700,701,732,731
679,701,702,733,732
680,702,703,734,733
681,703,704,735,734
682,704,705,736,735
683,705,706,737,736
684,706,707,738,737
685,707,708,739,738
686,708,709,740,739
687,709,710,741,740
688,710,711,742,741
689,711,712,743,742
690,712,713,744,743
691,714,715,746,745
692,715,716,747,746
693,716,717,748,747
694,717,718,749,748
695,718,719,750,749
696,719,720,751,750
697,720,721,752,751
698,721,722,753,752
699,722,723,754,753
700,723,724,755,754
701,724,725,756,755
702,725,726,757,756
703,726,727,758,757
704,727,728,759,758
705,728,729,760,759
706,729,730,761,760
707,730,731,762,761
708,731,732,763,762
709,732,733,764,763
710,733,734,765,764
711,734,735,766,765
712,735,736,767,766
713,736,737,768,767
714,737,738,769,768
715,738,739,770,769
716,739,740,771,770
717,740,741,772,771
718,741,742,773,772
719,742,743,774,773
720,743,744,775,774
721,745,746,777,776
722,746,747,778,777
723,747,748,779,778
724,748,749,780,779
725,749,750,781,780
726,750,751,782,781
727,751,752,783,782
728,752,753,784,783
729,753,754,785,784
730,754,755,786,785
731,755,756,787,786
732,756,757,788,787
733,757,758,789,788
734,758,759,790,789
735,759,760,791,790
736,760,761,792,791
737,761,762,793,792
738,762,763,794,793
739,763,764,795,794
740,764,765,796,795
741,765,766,797,796
742,766,767,798,797
743,767,768,799,798
744,768,769,800,799
745,769,770,801,800
746,770,771,802,801
747,771,772,803,802
748,772,773,804,803
749,773,774,805,804
750,774,775,806,805
751,776,777,808,807
752,777,778,809,808
753,778,779,810,809
754,779,780,811,810
755,780,781,812,811
756,781,782,813,812
757,782,783,814,813
758,783,784,815,814
759,784,785,816,815
760,785,786,817,816
761,786,787,818,817
762,787,788,819,818
763,788,789,820,819
764,789,790,821,820
765,790,791,822,821
766,791,792,823,822
767,792,793,824,823
768,793,794,825,824
769,794,795,826,825
770,795,796,827,826
771,796,797,828,827
772,797,798,829,828
773,798,799,830,829
774,799,800,831,830
775,800,801,832,831
776,801,802,833,832
777,802,803,834,833
778,803,804,835,834
779,804,805,836,835
780,805,806,837,836
781,807,808,839,838
782,808,809,840,839
783,809,810,841,840
784,810,811,842,841
785,811,812,843,842
786,812,813,844,843
787,813,814,845,844
788,814,815,846,845
789,815,816,847,846
790,816,817,848,847
791,817,818,849,848
792,818,819,850,849
793,819,820,851,850
794,820,821,852,851
795,821,822,853,852
796,822,823,854,853
797,823,824,855,854
798,824,825,856,855
799,825,826,857,856
800,826,827,858,857
801,827,828,859,858
802,828,829,860,859
803,829,830,861,860
804,830,831,862,861
805,831,832,863,862
806,832,833,864,863
807,833,834,865,864
808,834,835,866,865
809,835,836,867,866
810,836,837,868,867
811,838,839,870,869
812,839,840,871,870
813,840,841,872,871
814,841,842,873,872
815,842,843,874,873
816,843,844,875,874
817,844,845,876,875
818,845,846,877,876
819,846,847,878,877
820,847,848,879,878
821,848,849,880,879
822,849,850,881,880
823,850,851,882,881
824,851,852,883,882
825,852,853,884,883
826,853,854,885,884
827,854,855,886,885
828,855,856,887,886
829,856,857,888,887
830,857,858,889,888
831,858,859,890,889
832,859,860,891,890
833,860,861,892,891
834,861,862,893,892
835,862,863,894,893
836,863,864,895,894
837,864,865,896,895
838,865,866,897,896
839,866,867,898,897
840,867,868,899,898
841,869,870,901,900
842,870,871,902,901
843,871,872,903,902
844,872,873,904,903
845,873,874,905,904
846,874,875,906,905
847,875,876,907,906
848,876,877,908,907
849,877,878,909,908
850,878,879,910,909
851,879,880,911,910
852,880,881,912,911
853,881,882,913,912
854,882,883,914,913
855,883,884,915,914
856,884,885,916,915
857,885,886,917,916
858,886,887,918,917
859,887,888,919,918
860,888,889,920,919
861,889,890,921,920
862,890,891,922,921
863,891,892,923,922
864,892,893,924,923
865,893,894,925,924
866,894,895,926,925
867,895,896,927,926
868,896,897,928,927
869,897,898,929,928
870,898,899,930,929
871,900,901,932,931
872,901,902,933,932
873,902,903,934,933
874,903,904,935,934
875,904,905,936,935
876,905,906,937,936
877,906,907,938,937
878,907,908,939,938
879,908,909,940,939
880,909,910,941,940
881,910,911,942,941
882,911,912,943,942
883,912,913,944,943
884,913,914,945,944
885,914,915,946,945
886,915,916,947,946
887,916,917,948,947
888,917,918,949,948
889,918,919,950,949
890,919,920,951,950
891,920,921,952,951
892,921,922,953,952
893,922,923,954,953
894,923,924,955,954
895,924,925,956,955
896,925,926,957,956
897,926,927,958,957
898,927,928,959,958
899,928,929,960,959
900,929,930,961,960
901,931,932,963,962
902,932,933,964,963
903,933,934,965,964
904,934,935,966,965
905,935,936,967,966
906,936,937,968,967
907,937,938,969,968
908,938,939,970,969
909,939,940,971,970
910,940,941,972,971
911,941,942,973,972
912,942,943,974,973
913,943,944,975,974
914,944,945,976,975
915,945,946,977,976
916,946,947,978,977
917,947,948,979,978
918,948,949,980,979
919,949,950,981,980
920,950,951,982,981
921,951,952,983,982
922,952,953,984,983
923,953,954,985,984
924,954,955,986,985
925,955,956,987,986
926,956,957,988,987
927,957,958,989,988
928,958,959,990,989
929,959,960,991,990
930,960,961,992,991
931,962,963,994,993
932,963,964,995,994
933,964,965,996,995
934,965,966,997,996
935,966,967,998,997
936,967,968,999,998
937,968,969,1000,999
938,969,970,1001,1000
939,970,971,1002,1001
940,971,972,1003,1002
941,972,973,1004,1003
942,973,974,1005,1004
943,974,975,1006,1005
944,975,976,1007,1006
945,976,977,1008,1007
946,977,978,1009,1008
947,978,979,1010,1009
948,979,980,1011,1010
949,980,981,1012,1011
950,981,982,1013,1012
951,982,983,1014,1013
952,983,984,1015,1014
953,984,985,1016,1015
954,985,986,1017,1016
955,986,987,1018,1017
956,987,988,1019,1018
957,988,989,1020,1019
958,989,990,1021,1020
959,990,991,1022,1021
960,991,992,1023,1022
961,993,994,1025,1024
962,994,995,1026,1025
963,995,996,1027,1026
964,996,997,1028,1027
965,997,998,1029,1028
966,998,999,1030,1029
967,999,1000,1031,1030
968,1000,1001,1032,1031
969,1001,1002,1033,1032
970,1002,1003,1034,1033
971,1003,1004,1035,1034
972,1004,1005,1036,1035
973,1005,1006,1037,1036
974,1006,1007,1038,1037
975,1007,1008,1039,1038
976,1008,1009,1040,1039
977,1009,1010,1041,1040
978,1010,1011,1042,1041
979,1011,1012,1043,1042
980,1012,1013,1044,1043
981,1013,1014,1045,1044
982,1014,1015,1046,1045
983,1015,1016,1047,1046
984,1016,1017,1048,1047
985,1017,1018,1049,1048
986,1018,1019,1050,1049
987,1019,1020,1051,1050
988,1020,1021,1052,1051
989,1021,1022,1053,1052
990,1022,1023,1054,1053
991,1024,1025,1056,1055
992,1025,1026,1057,1056
993,1026,1027,1058,1057
994,1027,1028,1059,1058
995,1028,1029,1060,1059
996,1029,1030,1061,1060
997,1030,1031,1062,1061
998,1031,1032,1063,1062
999,1032,1033,1064,1063
1000,1033,1034,1065,1064
1001,1034,1035,1066,1065
1002,1035,1036,1067,1066
1003,1036,1037,1068,1067
1004,1037,1038,1069,1068
1005,1038,1039,1070,1069
1006,1039,1040,1071,1070
1007,1040,1041,1072,1071
1008,1041,1042,1073,1072
1009,1042,1043,1074,1073
1010,1043,1044,1075,1074
1011,1044,1045,1076,1075
1012,1045,1046,1077,1076
1013,1046,1047,1078,1077
1014,1047,1048,1079,1078
1015,1048,1049,1080,1079
1016,1049,1050,1081,1080
1017,1050,1051,1082,1081
1018,1051,1052,1083,1082
1019,1052,1053,1084,1083
1020,1053,1054,1085,1084
1021,1055,1056,1087,1086
1022,1056,1057,1088,1087
1023,1057,1058,1089,1088
1024,1058,1059,1090,1089
1025,1059,1060,1091,1090
1026,1060,1061,1092,1091
1027,1061,1062,1093,1092
1028,1062,1063,1094,1093
1029,1063,1064,1095,1094
1030,1064,1065,1096,1095
1031,1065,1066,1097,1096
1032,1066,1067,1098,1097
1033,1067,1068,1099,1098
1034,1068,1069,1100,1099
1035,1069,1070,1101,1100
1036,1070,1071,1102,1101
1037,1071,1072,1103,1102
1038,1072,1073,1104,1103
1039,1073,1074,1105,1104
1040,1074,1075,1106,1105
1041,1075,1076,1107,1106
1042,1076,1077,1108,1107
1043,1077,1078,1109,1108
1044,1078,1079,1110,1109
1045,1079,1080,1111,1110
1046,1080,1081,1112,1111
1047,1081,1082,1113,1112
1048,1082,1083,1114,1113
1049,1083,1084,1115,1114
1050,1084,1085,1116,1115
1051,1086,1087,1118,1117
1052,1087,1088,1119,1118
1053,1088,1089,1120,1119
1054,1089,1090,1121,1120
1055,1090,1091,1122,1121
1056,1091,1092,1123,1122
1057,1092,1093,1124,1123
1058,1093,1094,1125,1124
1059,1094,1095,1126,1125
1060,1095,1096,1127,1126
1061,1096,1097,1128,1127
1062,1097,1098,1129,1128
1063,1098,1099,1130,1129
1064,1099,1100,1131,1130
1065,1100,1101,1132,1131
1066,1101,1102,1133,1132
1067,1102,1103,1134,1133
1068,1103,1104,1135,1134
1069,1104,1105,1136,1135
1070,1105,1106,1137,1136
1071,1106,1107,1138,1137
1072,1107,1108,1139,1138
1073,1108,1109,1140,1139
1074,1109,1110,1141,1140
1075,1110,1111,1142,1141
1076,1111,1112,1143,1142
1077,1112,1113,1144,1143
1078,1113,1114,1145,1144
1079,1114,1115,1146,1145
1080,1115,1116,1147,1146
1081,1117,1118,1149,1148
1082,1118,1119,1150,1149
1083,1119,1120,1151,1150
1084,1120,1121,1152,1151
1085,1121,1122,1153,1152
1086,1122,1123,1154,1153
1087,1123,1124,1155,1154
1088,1124,1125,1156,1155
1089,1125,1126,1157,1156
1090,1126,1127,1158,1157
1091,1127,1128,1159,1158
1092,1128,1129,1160,1159
1093,1129,1130,1161,1160
1094,1130,1131,1162,1161
1095,1131,1132,1163,1162
1096,1132,1133,1164,1163
1097,1133,1134,1165,1164
1098,1134,1135,1166,1165
1099,1135,1136,1167,1166
1100,1136,1137,1168,1167
1101,1137,1138,1169,1168
1102,1138,1139,1170,1169
1103,1139,1140,1171,1170
1104,1140,1141,1172,1171
1105,1141,1142,1173,1172
1106,1142,1143,1174,1173
1107,1143,1144,1175,1174
1108,1144,1145,1176,1175
1109,1145,1146,1177,1176
1110,1146,1147,1178,1177
1111,1148,1149,1180,1179
1112,1149,1150,1181,1180
1113,1150,1151,1182,1181
1114,1151,1152,1183,1182
1115,1152,1153,1184,1183
1116,1153,1154,1185,1184
1117,1154,1155,1186,1185
1118,1155,1156,1187,1186
1119,1156,1157,1188,1187
1120,1157,1158,1189,1188
1121,1158,1159,1190,1189
1122,1159,1160,1191,1190
1123,1160,1161,1192,1191
1124,1161,1162,1193,1192
1125,1162,1163,1194,1193
1126,1163,1164,1195,1194
1127,1164,1165,1196,1195
1128,1165,1166,1197,1196
1129,1166,1167,1198,1197
1130,1167,1168,1199,1198
1131,1168,1169,1200,1199
1132,1169,1170,1201,1200
1133,1170,1171,1202,1201
1134,1171,1172,1203,1202
1135,1172,1173,1204,1203
1136,1173,1174,1205,1204
1137,1174,1175,1206,1205
1138,1175,1176,1207,1206
1139,1176,1177,1208,1207
1140,1177,1178,1209,1208
1141,1179,1180,1211,1210
1142,1180,1181,1212,1211
1143,1181,1182,1213,1212
1144,1182,1183,1214,1213
1145,1183,1184,1215,1214
1146,1184,1185,1216,1215
1147,1185,1186,1217,1216
1148,1186,1187,1218,1217
1149,1187,1188,1219,1218
1150,1188,1189,1220,1219
1151,1189,1190,1221,1220
1152,1190,1191,1222,1221
1153,1191,1192,1223,1222
1154,1192,1193,1224,1223
1155,1193,1194,1225,1224
1156,1194,1195,1226,1225
1157,1195,1196,1227,1226
1158,1196,1197,1228,1227
1159,1197,1198,1229,1228
1160,1198,1199,1230,1229
1161,1199,1200,1231,1230
1162,1200,1201,1232,1231
1163,1201,1202,1233,1232
1164,1202,1203,1234,1233
1165,1203,1204,1235,1234
1166,1204,1205,1236,1235
1167,1205,1206,1237,1236
1168,1206,1207,1238,1237
1169,1207,1208,1239,1238
1170,1208,1209,1240,1239
1171,1210,1211,1242,1241
1172,1211,1212,1243,1242
1173,1212,1213,1244,1243
1174,1213,1214,1245,1244
1175,1214,1215,1246,1245
1176,1215,1216,1247,1246
1177,1216,1217,1248,1247
1178,1217,1218,1249,1248
1179,1218,1219,1250,1249
1180,1219,1220,1251,1250
1181,1220,1221,1252,1251
1182,1221,1222,1253,1252
1183,1222,1223,1254,1253
1184,1223,1224,1255,1254
1185,1224,1225,1256,1255
1186,1225,1226,1257,1256
1187,1226,1227,1258,1257
1188,1227,1228,1259,1258
1189,1228,1229,1260,1259
1190,1229,1230,1261,1260
1191,1230,1231,1262,1261
1192,1231,1232,1263,1262
1193,1232,1233,1264,1263
1194,1233,1234,1265,1264
1195,1234,1235,1266,1265
1196,1235,1236,1267,1266
1197,1236,1237,1268,1267
1198,1237,1238,1269,1268
1199,1238,1239,1270,1269
1200,1239,1240,1271,1270
1201,1241,1242,1273,1272
1202,1242,1243,1274,1273
1203,1243,1244,1275,1274
1204,1244,1245,1276,1275
1205,1245,1246,1277,1276
1206,1246,1247,1278,1277
1207,1247,1248,1279,1278
1208,1248,1249,1280,1279
1209,1249,1250,1281,1280
1210,1250,1251,1282,1281
1211,1251,1252,1283,1282
1212,1252,1253,1284,1283
1213,1253,1254,1285,1284
1214,1254,1255,1286,1285
1215,1255,1256,1287,1286
1216,1256,1257,1288,1287
1217,1257,1258,1289,1288
1218,1258,1259,1290,1289
1219,1259,1260,1291,1290
1220,1260,1261,1292,1291
1221,1261,1262,1293,1292
1222,1262,1263,1294,1293
1223,1263,1264,1295,1294
1224,1264,1265,1296,1295
1225,1265,1266,1297,1296
1226,1266,1267,1298,1297
1227,1267,1268,1299,1298
1228,1268,1269,1300,1299
1229,1269,1270,1301,1300
1230,1270,1271,1302,1301
1231,1272,1273,1304,1303
1232,1273,1274,1305,1304
1233,1274,1275,1306,1305
1234,1275,1276,1307,1306
1235,1276,1277,1308,1307
1236,1277,1278,1309,1308
1237,1278,1279,1310,1309
1238,1279,1280,1311,1310
1239,1280,1281,1312,1311
1240,1281,1282,1313,1312
1241,1282,1283,1314,1313
1242,1283,1284,1315,1314
1243,1284,1285,1316,1315
1244,1285,1286,1317,1316
1245,1286,1287,1318,1317
1246,1287,1288,1319,1318
1247,1288,1289,1320,1319
1248,1289,1290,1321,1320
1249,1290,1291,1322,1321
1250,1291,1292,1323,1322
1251,1292,1293,1324,1323
1252,1293,1294,1325,1324
1253,1294,1295,1326,1325
1254,1295,1296,1327,1326
1255,1296,1297,1328,1327
1256,1297,1298,1329,1328
1257,1298,1299,1330,1329
1258,1299,1300,1331,1330
1259,1300,1301,1332,1331
1260,1301,1302,1333,1332
1261,1303,1304,1335,1334
1262,1304,1305,1336,1335
1263,1305,1306,1337,1336
1264,1306,1307,1338,1337
1265,1307,1308,1339,1338
1266,1308,1309,1340,1339
1267,1309,1310,1341,1340
1268,1310,1311,1342,1341
1269,1311,1312,1343,1342
1270,1312,1313,1344,1343
1271,1313,1314,1345,1344
1272,1314,1315,1346,1345
1273,1315,1316,1347,1346
1274,1316,1317,1348,1347
1275,1317,1318,1349,1348
1276,1318,1319,1350,1349
1277,1319,1320,1351,1350
1278,1320,1321,1352,1351
1279,1321,1322,1353,1352
1280,1322,1323,1354,1353
1281,1323,1324,1355,1354
1282,1324,1325,1356,1355
1283,1325,1326,1357,1356
1284,1326,1327,1358,1357
1285,1327,1328,1359,1358
1286,1328,1329,1360,1359
1287,1329,1330,1361,1360
1288,1330,1331,1362,1361
1289,1331,1332,1363,1362
1290,1332,1333,1364,1363
1291,1334,1335,1366,1365
1292,1335,1336,1367,1366
1293,1336,1337,1368,1367
1294,1337,1338,1369,1368
1295,1338,1339,1370,1369
1296,1339,1340,1371,1370
1297,1340,1341,1372,1371
1298,1341,1342,1373,1372
1299,1342,1343,1374,1373
1300,1343,1344,1375,1374
1301,1344,1345,1376,1375
1302,1345,1346,1377,1376
1303,1346,1347,1378,1377
1304,1347,1348,1379,1378
1305,1348,1349,1380,1379
1306,1349,1350,1381,1380
1307,1350,1351,1382,1381
1308,1351,1352,1383,1382
1309,1352,1353,1384,1383
1310,1353,1354,1385,1384
1311,1354,1355,1386,1385
1312,1355,1356,1387,1386
1313,1356,1357,1388,1387
1314,1357,1358,1389,1388
1315,1358,1359,1390,1389
1316,1359,1360,1391,1390
1317,1360,1361,1392,1391
1318,1361,1362,1393,1392
1319,1362,1363,1394,1393
1320,1363,1364,1395,1394
1321,1365,1366,1397,1396
1322,1366,1367,1398,1397
1323,1367,1368,1399,1398
1324,1368,1369,1400,1399
1325,1369,1370,1401,1400
1326,1370,1371,1402,1401
1327,1371,1372,1403,1402
1328,1372,1373,1404,1403
1329,1373,1374,1405,1404
1330,1374,1375,1406,1405
1331,1375,1376,1407,1406
1332,1376,1377,1408,1407
1333,1377,1378,1409,1408
1334,1378,1379,1410,1409
1335,1379,1380,1411,1410
1336,1380,1381,1412,1411
1337,1381,1382,1413,1412
1338,1382,1383,1414,1413
1339,1383,1384,1415,1414
1340,1384,1385,1416,1415
1341,1385,1386,1417,1416
1342,1386,1387,1418,1417
1343,1387,1388,1419,1418
1344,1388,1389,1420,1419
1345,1389,1390,1421,1420
1346,1390,1391,1422,1421
1347,1391,1392,1423,1422
1348,1392,1393,1424,1423
1349,1393,1394,1425,1424
1350,1394,1395,1426,1425
*ELSET,ELSET=DESIGN
6,7,8,9,10,11,12,13,14,15,16,17,18,19,20,21
22,23,24,25,26,27,28,29,30,36,37,38,39,40,41,42
43,44,45,46,47,48,49,50,51,52,53,54,55,56,57,58
59,60,66,67,68,69,70,71,72,73,74,75,76,77,78,79
80,81,82,83,84,85,86,87,88,89,90,96,97,98,99,100
101,102,103,104,105,106,107,108,109,110,111,112,113,114,115,116
117,118,119,120,126,127,128,129,130,131,132,133,134,135,136,137
138,139,140,141,142,143,144,145,146,147,148,149,150,156,157,158
159,160,161,162,163,164,165,166,167,168,169,170,171,172,173,174
175,176,177,178,179,180,186,187,188,189,190,191,192,193,194,195
196,197,198,199,200,201,202,203,204,205,206,207,208,209,210,211
212,213,214,215,216,217,218,219,220,221,222,223,224,225,226,227
228,229,230,231,232,233,234,235,236,237,238,239,240,241,242,243
244,245,246,247,248,249,250,251,252,253,254,255,256,257,258,259
260,261,262,263,264,265,266,267,268,269,270,271,272,273,274,275
276,277,278,279,280,281,282,283,284,285,286,287,288,289,290,291
292,293,294,295,296,297,298,299,300,301,302,303,304,305,306,307
308,309,310,311,312,313,314,315,316,317,318,319,320,321,322,323
324,325,326,327,328,329,330,331,332,333,334,335,336,337,338,339
340,341,342,343,344,345,346,347,348,349,350,351,352,353,354,355
356,357,358,359,360,361,362,363,364,365,366,367,368,369,370,371
372,373,374,375,376,377,378,379,380,381,382,383,384,385,386,387
388,389,390,391,392,393,394,395,396,397,398,399,400,401,402,403
404,405,406,407,408,409,410,411,412,413,414,415,416,417,418,419
420,421,422,423,424,425,426,427,428,429,430,431,432,433,434,435
436,437,438,439,440,441,442,443,444,445,446,447,448,449,450,451
452,453,454,455,456,457,458,459,460,461,462,463,464,465,466,467
468,469,470,471,472,473,474,475,476,477,478,479,480,481,482,483
484,485,486,487,488,489,490,491,492,493,494,495,496,497,498,499
500,501,502,503,504,505,506,507,508,509,510,511,512,513,514,515
516,517,518,519,520,521,522,523,524,525,526,527,528,529,530,531
532,533,534,535,536,537,538,539,540,541,542,543,544,545,546,547
548,549,550,551,552,553,554,555,556,557,558,559,560,561,562,563
564,565,566,567,568,569,570,571,572,573,574,575,576,577,578,579
580,581,582,583,584,585,586,587,588,589,590,591,592,593,594,595
596,597,598,599,600,601,602,603,604,605,606,607,608,609,610,611
612,613,614,615,616,617,618,619,620,621,622,623,624,625,626,627
628,629,630,631,632,633,634,635,636,637,638,639,640,641,642,643
644,645,646,647,648,649,650,651,652,653,654,655,656,657,658,659
660,661,662,663,664,665,666,667,668,669,670,671,672,673,674,675
676,677,678,679,680,681,682,683,684,685,686,687,688,689,690,691
692,693,694,695,696,697,698,699,700,701,702,703,704,705,706,707
708,709,710,711,712,713,714,715,716,717,718,719,720,721,722,723
724,725,726,727,728,729,730,731,732,733,734,735,736,737,738,739
740,741,742,743,744,745,746,747,748,749,750,751,752,753,754,755
756,757,758,759,760,761,762,763,764,765,766,767,768,769,770,771
772,773,774,775,776,777,778,779,780,781,782,783,784,785,786,787
788,789,790,791,792,793,794,795,796,797,798,799,800,801,802,803
804,805,806,807,808,809,810,811,812,813,814,815,816,817,818,819
820,821,822,823,824,825,826,827,828,829,830,831,832,833,834,835
836,837,838,839,840,841,842,843,844,845,846,847,848,849,850,851
852,853,854,855,856,857,858,859,860,861,862,863,864,865,866,867
868,869,870,871,872,873,874,875,876,877,878,879,880,881,882,883
884,885,886,887,888,889,890,891,892,893,894,895,896,897,898,899
900,901,902,903,904,905,906,907,908,909,910,911,912,913,914,915
916,917,918,919,920,921,922,923,924,925,926,927,928,929,930,931
932,933,934,935,936,937,938,939,940,941,942,943,944,945,946,947
948,949,950,951,952,953,954,955,956,957,958,959,960,961,962,963
964,965,966,967,968,969,970,971,972,973,974,975,976,977,978,979
980,981,982,983,984,985,986,987,988,989,990,991,992,993,994,995
996,997,998,999,1000,1001,1002,1003,1004,1005,1006,1007,1008,1009,1010,1011
1012,1013,1014,1015,1016,1017,1018,1019,1020,1026,1027,1028,1029,1030,1031,1032
1033,1034,1035,1036,1037,1038,1039,1040,1041,1042,1043,1044,1045,1046,1047,1048
1049,1050,1056,1057,1058,1059,1060,1061,1062,1063,1064,1065,1066,1067,1068,1069
1070,1071,1072,1073,1074,1075,1076,1077,1078,1079,1080,1086,1087,1088,1089,1090
1091,1092,1093,1094,1095,1096,1097,1098,1099,1100,1101,1102,1103,1104,1105,1106
1107,1108,1109,1110,1116,1117,1118,1119,1120,1121,1122,1123,1124,1125,1126,1127
1128,1129,1130,1131,1132,1133,1134,1135,1136,1137,1138,1139,1140,1146,1147,1148
1149,1150,1151,1152,1153,1154,1155,1156,1157,1158,1159,1160,1161,1162,1163,1164
1165,1166,1167,1168,1169,1170,1176,1177,1178,1179,1180,1181,1182,1183,1184,1185
1186,1187,1188,1189,1190,1191,1192,1193,1194,1195,1196,1197,1198,1199,1200,1206
1207,1208,1209,1210,1211,1212,1213,1214,1215,1216,1217,1236,1237,1238,1239,1240
1241,1242,1243,1244,1245,1246,1247,1266,1267,1268,1269,1270,1271,1272,1273,1274
1275,1276,1277,1296,1297,1298,1299,1300,1301,1302,1303,1304,1305,1306,1307,1326
1327,1328,1329,1330,1331,1332,1333,1334,1335,1336,1337
*ELSET,ELSET=KEEP
1,2,3,4,5,31,32,33,34,35,61,62,63,64,65,91
92,93,94,95,121,122,123,124,125,151,152,153,154,155,181,182
183,184,185,1021,1022,1023,1024,1025,1051,1052,1053,1054,1055,1081,1082,1083
1084,1085,1111,1112,1113,1114,1115,1141,1142,1143,1144,1145,1171,1172,1173,1174
1175,1201,1202,1203,1204,1205,1218,1219,1220,1221,1222,1223,1224,1225,1226,1227
1228,1229,1230,1231,1232,1233,1234,1235,1248,1249,1250,1251,1252,1253,1254,1255
1256,1257,1258,1259,1260,1261,1262,1263,1264,1265,1278,1279,1280,1281,1282,1283
1284,1285,1286,1287,1288,1289,1290,1291,1292,1293,1294,1295,1308,1309,1310,1311
1312,1313,1314,1315,1316,1317,1318,1319,1320,1321,1322,1323,1324,1325,1338,1339
1340,1341,1342,1343,1344,1345,1346,1347,1348,1349,1350
*ELSET,ELSET=M420
32,33,34,35,36,37,38,39,40,41,42,43,44,45,46,47
48,49,50,51,52,53,54,55,56,57,58,59,62,63,64,65
66,67,68,69,70,71,72,73,74,75,76,77,78,79,80,81
82,83,84,85,86,87,88,89,92,93,94,95,96,97,98,99
100,101,102,103,104,105,106,107,108,109,110,111,112,113,114,115
116,117,118,119,122,123,124,125,126,127,128,129,130,131,132,133
134,135,136,137,138,139,140,141,142,143,144,145,146,147,148,149
152,153,154,155,156,157,158,159,160,161,162,163,164,165,166,167
168,169,170,171,172,173,174,175,176,177,178,179,182,183,184,185
186,187,188,189,190,191,192,193,194,195,196,197,198,199,200,201
202,203,204,205,206,207,208,209,212,213,214,215,216,217,218,219
220,221,222,223,224,225,226,227,228,229,230,231,232,233,234,235
236,237,238,239,242,243,244,245,246,247,248,249,250,251,252,253
254,255,256,257,258,259,260,261,262,263,264,265,266,267,268,269
272,273,274,275,276,277,278,279,280,281,282,283,284,285,286,287
288,289,290,291,292,293,294,295,296,297,298,299,302,303,304,305
306,307,308,309,310,311,312,313,314,315,316,317,318,319,320,321
322,323,324,325,326,327,328,329,332,333,334,335,336,337,338,339
340,341,342,343,344,345,346,347,348,349,350,351,352,353,354,355
356,357,358,359,362,363,364,365,366,367,368,369,370,371,372,373
374,375,376,377,378,379,380,381,382,383,384,385,386,387,388,389
392,393,394,395,396,397,398,399,400,401,402,403,404,405,406,407
408,409,410,411,412,413,414,415,416,417,418,419,422,423,424,425
426,427,428,429,430,431,432,433,434,435,436,437,438,439,440,441
442,443,444,445,446,447,448,449,452,453,454,455,456,457,458,459
460,461,462,463,464,465,466,467,468,469,470,471,472,473,474,475
476,477,478,479,482,483,484,485,486,487,488,489,490,491,492,493
494,495,496,497,498,499,500,501,502,503,504,505,506,507,508,509
512,513,514,515,516,517,518,519,520,521,522,523,524,525,526,527
528,529,530,531,532,533,534,535,536,537,538,539,542,543,544,545
546,547,548,549,550,551,552,553,554,555,556,557,558,559,560,561
562,563,564,565,566,567,568,569,572,573,574,575,576,577,578,579
580,581,582,583,584,585,586,587,588,589,590,591,592,593,594,595
596,597,598,599,602,603,604,605,606,607,608,609,610,611,612,613
614,615,616,617,618,619,620,621,622,623,624,625,626,627,628,629
632,633,634,635,636,637,638,639,640,641,642,643,644,645,646,647
648,649,650,651,652,653,654,655,656,657,658,659,662,663,664,665
666,667,668,669,670,671,672,673,674,675,676,677,678,679,680,681
682,683,684,685,686,687,688,689,692,693,694,695,696,697,698,699
700,701,702,703,704,705,706,707,708,709,710,711,712,713,714,715
716,717,718,719,722,723,724,725,726,727,728,729,730,731,732,733
734,735,736,737,738,739,740,741,742,743,744,745,746,747,748,749
752,753,754,755,756,757,758,759,760,761,762,763,764,765,766,767
768,769,770,771,772,773,774,775,776,777,778,779,782,783,784,785
786,787,788,789,790,791,792,793,794,795,796,797,798,799,800,801
802,803,804,805,806,807,808,809,812,813,814,815,816,817,818,819
820,821,822,823,824,825,826,827,828,829,830,831,832,833,834,835
836,837,838,839,842,843,844,845,846,847,848,849,850,851,852,853
854,855,856,857,858,859,860,861,862,863,864,865,866,867,868,869
872,873,874,875,876,877,878,879,880,881,882,883,884,885,886,887
888,889,890,891,892,893,894,895,896,897,898,899,902,903,904,905
906,907,908,909,910,911,912,913,914,915,916,917,918,919,920,921
922,923,924,925,926,927,928,929,932,933,934,935,936,937,938,939
940,941,942,943,944,945,946,947,948,949,950,951,952,953,954,955
956,957,958,959,962,963,964,965,966,967,968,969,970,971,972,973
974,975,976,977,978,979,980,981,982,983,984,985,986,987,988,989
992,993,994,995,996,997,998,999,1000,1001,1002,1003,1004,1005,1006,1007
1008,1009,1010,1011,1012,1013,1014,1015,1016,1017,1018,1019,1022,1023,1024,1025
1026,1027,1028,1029,1030,1031,1032,1033,1034,1035,1036,1037,1038,1039,1040,1041
1042,1043,1044,1045,1046,1047,1048,1049,1052,1053,1054,1055,1056,1057,1058,1059
1060,1061,1062,1063,1064,1065,1066,1067,1068,1069,1070,1071,1072,1073,1074,1075
1076,1077,1078,1079,1082,1083,1084,1085,1086,1087,1088,1089,1090,1091,1092,1093
1094,1095,1096,1097,1098,1099,1100,1101,1102,1103,1104,1105,1106,1107,1108,1109
1112,1113,1114,1115,1116,1117,1118,1119,1120,1121,1122,1123,1124,1125,1126,1127
1128,1129,1130,1131,1132,1133,1134,1135,1136,1137,1138,1139,1142,1143,1144,1145
1146,1147,1148,1149,1150,1151,1152,1153,1154,1155,1156,1157,1158,1159,1160,1161
1162,1163,1164,1165,1166,1167,1168,1169,1172,1173,1174,1175,1176,1177,1178,1179
1180,1181,1182,1183,1184,1185,1186,1187,1188,1189,1190,1191,1192,1193,1194,1195
1196,1197,1198,1199,1202,1203,1204,1205,1206,1207,1208,1209,1210,1211,1212,1213
1214,1215,1216,1217,1218,1219,1220,1221,1222,1223,1224,1225,1226,1227,1228,1229
1232,1233,1234,1235,1236,1237,1238,1239,1240,1241,1242,1243,1244,1245,1246,1247
1248,1249,1250,1251,1252,1253,1254,1255,1256,1257,1258,1259,1262,1263,1264,1265
1266,1267,1268,1269,1270,1271,1272,1273,1274,1275,1276,1277,1278,1279,1280,1281
1282,1283,1284,1285,1286,1287,1288,1289,1292,1293,1294,1295,1296,1297,1298,1299
1300,1301,1302,1303,1304,1305,1306,1307,1308,1309,1310,1311,1312,1313,1314,1315
1316,1317,1318,1319
*MATERIAL,NAME=M420
*ELASTIC
420,0.35
*SOLID SECTION,ELSET=M420,MATERIAL=M420
10.0
*ELSET,ELSET=M1250
2,3,4,5,6,7,8,9,10,11,12,13,14,15,16,17
18,19,20,21,22,23,24,25,26,27,28,29,31,60,61,90
91,120,121,150,151,180,181,210,211,240,241,270,271,300,301,330
331,360,361,390,391,420,421,450,451,480,481,510,511,540,541,570
571,600,601,630,631,660,661,690,691,720,721,750,751,780,781,810
811,840,841,870,871,900,901,930,931,960,961,990,991,1020,1021,1050
1051,1080,1081,1110,1111,1140,1141,1170,1171,1200,1201,1230,1231,1260,1261,1290
1291,1320,1322,1323,1324,1325,1326,1327,1328,1329,1330,1331,1332,1333,1334,1335
1336,1337,1338,1339,1340,1341,1342,1343,1344,1345,1346,1347,1348,1349
*MATERIAL,NAME=M1250
*ELASTIC
1250,0.35
*SOLID SECTION,ELSET=M1250,MATERIAL=M1250
10.0
*ELSET,ELSET=M1580
1,30,1321,1350
*MATERIAL,NAME=M1580
*ELASTIC
1580,0.35
*SOLID SECTION,ELSET=M1580,MATERIAL=M1580
10.0
*NSET,NSET=SUPPORT
1,32,63,94,125,156,187,1086,1117,1148,1179,1210,1241,1272,1303,1334
1365,1396
*NSET,NSET=LOAD
1415,1416,1417,1418,1419,1420,1421,1422,1423,1424,1425
*BOUNDARY
SUPPORT,1,2
*STEP
*STATIC
*CLOAD,OP=NEW
1415,1,2.727272727272727
1415,2,-6.6886363636363635
1416,1,2.727272727272727
1416,2,-6.6886363636363635
1417,1,2.727272727272727
1417,2,-6.6886363636363635
1418,1,2.727272727272727
1418,2,-6.6886363636363635
1419,1,2.727272727272727
1419,2,-6.6886363636363635
1420,1,2.727272727272727
1420,2,-6.6886363636363635
1421,1,2.727272727272727
1421,2,-6.6886363636363635
1422,1,2.727272727272727
1422,2,-6.6886363636363635
1423,1,2.727272727272727
1423,2,-6.6886363636363635
1424,1,2.727272727272727
1424,2,-6.6886363636363635
1425,1,2.727272727272727
1425,2,-6.6886363636363635
*NODE PRINT,NSET=LOAD
U
*EL PRINT,ELSET=ALL
S,ENER
*NODE FILE
U
*EL FILE
S
*END STEP
*STEP
*STATIC
*CLOAD,OP=NEW
1415,1,4.545454545454546
1415,2,2.727272727272727
1416,1,4.545454545454546
1416,2,2.727272727272727
1417,1,4.545454545454546
1417,2,2.727272727272727
1418,1,4.545454545454546
1418,2,2.727272727272727
1419,1,4.545454545454546
1419,2,2.727272727272727
1420,1,4.545454545454546
1420,2,2.727272727272727
1421,1,4.545454545454546
1421,2,2.727272727272727
1422,1,4.545454545454546
1422,2,2.727272727272727
1423,1,4.545454545454546
1423,2,2.727272727272727
1424,1,4.545454545454546
1424,2,2.727272727272727
1425,1,4.545454545454546
1425,2,2.727272727272727
*NODE PRINT,NSET=LOAD
U
*EL PRINT,ELSET=ALL
S,ENER
*NODE FILE
U
*EL FILE
S
*END STEP
