*HEADING
Fanless topology concept; mm N MPa; ideal fixed interfaces
*NODE
1, 0.0, 0.0, 0
2, 2.0, 0.0, 0
3, 4.0, 0.0, 0
4, 6.0, 0.0, 0
5, 8.0, 0.0, 0
6, 10.0, 0.0, 0
32, 0.0, 2.0, 0
33, 2.0, 2.0, 0
34, 4.0, 2.0, 0
35, 6.0, 2.0, 0
36, 8.0, 2.0, 0
37, 10.0, 2.0, 0
63, 0.0, 4.0, 0
64, 2.0, 4.0, 0
65, 4.0, 4.0, 0
66, 6.0, 4.0, 0
67, 8.0, 4.0, 0
68, 10.0, 4.0, 0
94, 0.0, 6.0, 0
95, 2.0, 6.0, 0
96, 4.0, 6.0, 0
97, 6.0, 6.0, 0
98, 8.0, 6.0, 0
99, 10.0, 6.0, 0
125, 0.0, 8.0, 0
126, 2.0, 8.0, 0
127, 4.0, 8.0, 0
128, 6.0, 8.0, 0
129, 8.0, 8.0, 0
130, 10.0, 8.0, 0
131, 12.0, 8.0, 0
132, 14.0, 8.0, 0
156, 0.0, 10.0, 0
157, 2.0, 10.0, 0
158, 4.0, 10.0, 0
159, 6.0, 10.0, 0
160, 8.0, 10.0, 0
161, 10.0, 10.0, 0
162, 12.0, 10.0, 0
163, 14.0, 10.0, 0
164, 16.0, 10.0, 0
187, 0.0, 12.0, 0
188, 2.0, 12.0, 0
189, 4.0, 12.0, 0
190, 6.0, 12.0, 0
191, 8.0, 12.0, 0
192, 10.0, 12.0, 0
193, 12.0, 12.0, 0
194, 14.0, 12.0, 0
195, 16.0, 12.0, 0
218, 0.0, 14.0, 0
219, 2.0, 14.0, 0
220, 4.0, 14.0, 0
221, 6.0, 14.0, 0
222, 8.0, 14.0, 0
223, 10.0, 14.0, 0
224, 12.0, 14.0, 0
225, 14.0, 14.0, 0
226, 16.0, 14.0, 0
227, 18.0, 14.0, 0
228, 20.0, 14.0, 0
249, 0.0, 16.0, 0
250, 2.0, 16.0, 0
251, 4.0, 16.0, 0
252, 6.0, 16.0, 0
253, 8.0, 16.0, 0
254, 10.0, 16.0, 0
255, 12.0, 16.0, 0
256, 14.0, 16.0, 0
257, 16.0, 16.0, 0
258, 18.0, 16.0, 0
259, 20.0, 16.0, 0
280, 0.0, 18.0, 0
281, 2.0, 18.0, 0
282, 4.0, 18.0, 0
283, 6.0, 18.0, 0
284, 8.0, 18.0, 0
285, 10.0, 18.0, 0
286, 12.0, 18.0, 0
287, 14.0, 18.0, 0
288, 16.0, 18.0, 0
289, 18.0, 18.0, 0
290, 20.0, 18.0, 0
291, 22.0, 18.0, 0
292, 24.0, 18.0, 0
313, 4.0, 20.0, 0
314, 6.0, 20.0, 0
315, 8.0, 20.0, 0
316, 10.0, 20.0, 0
317, 12.0, 20.0, 0
318, 14.0, 20.0, 0
319, 16.0, 20.0, 0
320, 18.0, 20.0, 0
321, 20.0, 20.0, 0
322, 22.0, 20.0, 0
323, 24.0, 20.0, 0
345, 6.0, 22.0, 0
346, 8.0, 22.0, 0
347, 10.0, 22.0, 0
348, 12.0, 22.0, 0
349, 14.0, 22.0, 0
350, 16.0, 22.0, 0
351, 18.0, 22.0, 0
352, 20.0, 22.0, 0
353, 22.0, 22.0, 0
354, 24.0, 22.0, 0
355, 26.0, 22.0, 0
356, 28.0, 22.0, 0
377, 8.0, 24.0, 0
378, 10.0, 24.0, 0
379, 12.0, 24.0, 0
380, 14.0, 24.0, 0
381, 16.0, 24.0, 0
382, 18.0, 24.0, 0
383, 20.0, 24.0, 0
384, 22.0, 24.0, 0
385, 24.0, 24.0, 0
386, 26.0, 24.0, 0
387, 28.0, 24.0, 0
408, 8.0, 26.0, 0
409, 10.0, 26.0, 0
410, 12.0, 26.0, 0
411, 14.0, 26.0, 0
412, 16.0, 26.0, 0
413, 18.0, 26.0, 0
414, 20.0, 26.0, 0
415, 22.0, 26.0, 0
416, 24.0, 26.0, 0
417, 26.0, 26.0, 0
418, 28.0, 26.0, 0
419, 30.0, 26.0, 0
420, 32.0, 26.0, 0
440, 10.0, 28.0, 0
441, 12.0, 28.0, 0
442, 14.0, 28.0, 0
443, 16.0, 28.0, 0
444, 18.0, 28.0, 0
445, 20.0, 28.0, 0
446, 22.0, 28.0, 0
447, 24.0, 28.0, 0
448, 26.0, 28.0, 0
449, 28.0, 28.0, 0
450, 30.0, 28.0, 0
451, 32.0, 28.0, 0
472, 12.0, 30.0, 0
473, 14.0, 30.0, 0
474, 16.0, 30.0, 0
475, 18.0, 30.0, 0
476, 20.0, 30.0, 0
477, 22.0, 30.0, 0
478, 24.0, 30.0, 0
479, 26.0, 30.0, 0
480, 28.0, 30.0, 0
481, 30.0, 30.0, 0
482, 32.0, 30.0, 0
483, 34.0, 30.0, 0
504, 14.0, 32.0, 0
505, 16.0, 32.0, 0
506, 18.0, 32.0, 0
507, 20.0, 32.0, 0
508, 22.0, 32.0, 0
509, 24.0, 32.0, 0
510, 26.0, 32.0, 0
511, 28.0, 32.0, 0
512, 30.0, 32.0, 0
513, 32.0, 32.0, 0
514, 34.0, 32.0, 0
515, 36.0, 32.0, 0
536, 16.0, 34.0, 0
537, 18.0, 34.0, 0
538, 20.0, 34.0, 0
539, 22.0, 34.0, 0
540, 24.0, 34.0, 0
541, 26.0, 34.0, 0
542, 28.0, 34.0, 0
543, 30.0, 34.0, 0
544, 32.0, 34.0, 0
545, 34.0, 34.0, 0
546, 36.0, 34.0, 0
547, 38.0, 34.0, 0
568, 18.0, 36.0, 0
569, 20.0, 36.0, 0
570, 22.0, 36.0, 0
571, 24.0, 36.0, 0
572, 26.0, 36.0, 0
573, 28.0, 36.0, 0
574, 30.0, 36.0, 0
575, 32.0, 36.0, 0
576, 34.0, 36.0, 0
577, 36.0, 36.0, 0
578, 38.0, 36.0, 0
579, 40.0, 36.0, 0
600, 20.0, 38.0, 0
601, 22.0, 38.0, 0
602, 24.0, 38.0, 0
603, 26.0, 38.0, 0
604, 28.0, 38.0, 0
605, 30.0, 38.0, 0
606, 32.0, 38.0, 0
607, 34.0, 38.0, 0
608, 36.0, 38.0, 0
609, 38.0, 38.0, 0
610, 40.0, 38.0, 0
611, 42.0, 38.0, 0
632, 22.0, 40.0, 0
633, 24.0, 40.0, 0
634, 26.0, 40.0, 0
635, 28.0, 40.0, 0
636, 30.0, 40.0, 0
637, 32.0, 40.0, 0
638, 34.0, 40.0, 0
639, 36.0, 40.0, 0
640, 38.0, 40.0, 0
641, 40.0, 40.0, 0
642, 42.0, 40.0, 0
643, 44.0, 40.0, 0
664, 24.0, 42.0, 0
665, 26.0, 42.0, 0
666, 28.0, 42.0, 0
667, 30.0, 42.0, 0
668, 32.0, 42.0, 0
669, 34.0, 42.0, 0
670, 36.0, 42.0, 0
671, 38.0, 42.0, 0
672, 40.0, 42.0, 0
673, 42.0, 42.0, 0
674, 44.0, 42.0, 0
675, 46.0, 42.0, 0
696, 26.0, 44.0, 0
697, 28.0, 44.0, 0
698, 30.0, 44.0, 0
699, 32.0, 44.0, 0
700, 34.0, 44.0, 0
701, 36.0, 44.0, 0
702, 38.0, 44.0, 0
703, 40.0, 44.0, 0
704, 42.0, 44.0, 0
705, 44.0, 44.0, 0
706, 46.0, 44.0, 0
707, 48.0, 44.0, 0
728, 28.0, 46.0, 0
729, 30.0, 46.0, 0
730, 32.0, 46.0, 0
731, 34.0, 46.0, 0
732, 36.0, 46.0, 0
733, 38.0, 46.0, 0
734, 40.0, 46.0, 0
735, 42.0, 46.0, 0
736, 44.0, 46.0, 0
737, 46.0, 46.0, 0
738, 48.0, 46.0, 0
739, 50.0, 46.0, 0
760, 30.0, 48.0, 0
761, 32.0, 48.0, 0
762, 34.0, 48.0, 0
763, 36.0, 48.0, 0
764, 38.0, 48.0, 0
765, 40.0, 48.0, 0
766, 42.0, 48.0, 0
767, 44.0, 48.0, 0
768, 46.0, 48.0, 0
769, 48.0, 48.0, 0
770, 50.0, 48.0, 0
792, 32.0, 50.0, 0
793, 34.0, 50.0, 0
794, 36.0, 50.0, 0
795, 38.0, 50.0, 0
796, 40.0, 50.0, 0
797, 42.0, 50.0, 0
798, 44.0, 50.0, 0
799, 46.0, 50.0, 0
800, 48.0, 50.0, 0
801, 50.0, 50.0, 0
802, 52.0, 50.0, 0
823, 32.0, 52.0, 0
824, 34.0, 52.0, 0
825, 36.0, 52.0, 0
826, 38.0, 52.0, 0
827, 40.0, 52.0, 0
828, 42.0, 52.0, 0
829, 44.0, 52.0, 0
830, 46.0, 52.0, 0
831, 48.0, 52.0, 0
832, 50.0, 52.0, 0
833, 52.0, 52.0, 0
854, 32.0, 54.0, 0
855, 34.0, 54.0, 0
856, 36.0, 54.0, 0
857, 38.0, 54.0, 0
858, 40.0, 54.0, 0
859, 42.0, 54.0, 0
860, 44.0, 54.0, 0
861, 46.0, 54.0, 0
862, 48.0, 54.0, 0
863, 50.0, 54.0, 0
864, 52.0, 54.0, 0
865, 54.0, 54.0, 0
883, 28.0, 56.0, 0
884, 30.0, 56.0, 0
885, 32.0, 56.0, 0
886, 34.0, 56.0, 0
887, 36.0, 56.0, 0
888, 38.0, 56.0, 0
889, 40.0, 56.0, 0
890, 42.0, 56.0, 0
891, 44.0, 56.0, 0
892, 46.0, 56.0, 0
893, 48.0, 56.0, 0
894, 50.0, 56.0, 0
895, 52.0, 56.0, 0
896, 54.0, 56.0, 0
914, 28.0, 58.0, 0
915, 30.0, 58.0, 0
916, 32.0, 58.0, 0
917, 34.0, 58.0, 0
918, 36.0, 58.0, 0
919, 38.0, 58.0, 0
920, 40.0, 58.0, 0
921, 42.0, 58.0, 0
922, 44.0, 58.0, 0
923, 46.0, 58.0, 0
924, 48.0, 58.0, 0
925, 50.0, 58.0, 0
926, 52.0, 58.0, 0
927, 54.0, 58.0, 0
928, 56.0, 58.0, 0
943, 24.0, 60.0, 0
944, 26.0, 60.0, 0
945, 28.0, 60.0, 0
946, 30.0, 60.0, 0
947, 32.0, 60.0, 0
948, 34.0, 60.0, 0
949, 36.0, 60.0, 0
950, 38.0, 60.0, 0
951, 40.0, 60.0, 0
952, 42.0, 60.0, 0
953, 44.0, 60.0, 0
954, 46.0, 60.0, 0
955, 48.0, 60.0, 0
956, 50.0, 60.0, 0
957, 52.0, 60.0, 0
958, 54.0, 60.0, 0
959, 56.0, 60.0, 0
973, 22.0, 62.0, 0
974, 24.0, 62.0, 0
975, 26.0, 62.0, 0
976, 28.0, 62.0, 0
977, 30.0, 62.0, 0
978, 32.0, 62.0, 0
979, 34.0, 62.0, 0
981, 38.0, 62.0, 0
982, 40.0, 62.0, 0
983, 42.0, 62.0, 0
984, 44.0, 62.0, 0
985, 46.0, 62.0, 0
986, 48.0, 62.0, 0
987, 50.0, 62.0, 0
988, 52.0, 62.0, 0
989, 54.0, 62.0, 0
990, 56.0, 62.0, 0
1002, 18.0, 64.0, 0
1003, 20.0, 64.0, 0
1004, 22.0, 64.0, 0
1005, 24.0, 64.0, 0
1006, 26.0, 64.0, 0
1007, 28.0, 64.0, 0
1008, 30.0, 64.0, 0
1009, 32.0, 64.0, 0
1013, 40.0, 64.0, 0
1014, 42.0, 64.0, 0
1015, 44.0, 64.0, 0
1016, 46.0, 64.0, 0
1017, 48.0, 64.0, 0
1018, 50.0, 64.0, 0
1019, 52.0, 64.0, 0
1020, 54.0, 64.0, 0
1021, 56.0, 64.0, 0
1022, 58.0, 64.0, 0
1032, 16.0, 66.0, 0
1033, 18.0, 66.0, 0
1034, 20.0, 66.0, 0
1035, 22.0, 66.0, 0
1036, 24.0, 66.0, 0
1037, 26.0, 66.0, 0
1038, 28.0, 66.0, 0
1044, 40.0, 66.0, 0
1045, 42.0, 66.0, 0
1046, 44.0, 66.0, 0
1047, 46.0, 66.0, 0
1048, 48.0, 66.0, 0
1049, 50.0, 66.0, 0
1050, 52.0, 66.0, 0
1051, 54.0, 66.0, 0
1052, 56.0, 66.0, 0
1053, 58.0, 66.0, 0
1055, 0.0, 68.0, 0
1056, 2.0, 68.0, 0
1057, 4.0, 68.0, 0
1058, 6.0, 68.0, 0
1059, 8.0, 68.0, 0
1060, 10.0, 68.0, 0
1062, 14.0, 68.0, 0
1063, 16.0, 68.0, 0
1064, 18.0, 68.0, 0
1065, 20.0, 68.0, 0
1066, 22.0, 68.0, 0
1067, 24.0, 68.0, 0
1068, 26.0, 68.0, 0
1075, 40.0, 68.0, 0
1076, 42.0, 68.0, 0
1077, 44.0, 68.0, 0
1078, 46.0, 68.0, 0
1079, 48.0, 68.0, 0
1080, 50.0, 68.0, 0
1081, 52.0, 68.0, 0
1082, 54.0, 68.0, 0
1083, 56.0, 68.0, 0
1084, 58.0, 68.0, 0
1085, 60.0, 68.0, 0
1086, 0.0, 70.0, 0
1087, 2.0, 70.0, 0
1088, 4.0, 70.0, 0
1089, 6.0, 70.0, 0
1090, 8.0, 70.0, 0
1091, 10.0, 70.0, 0
1092, 12.0, 70.0, 0
1093, 14.0, 70.0, 0
1094, 16.0, 70.0, 0
1095, 18.0, 70.0, 0
1096, 20.0, 70.0, 0
1097, 22.0, 70.0, 0
1098, 24.0, 70.0, 0
1105, 38.0, 70.0, 0
1106, 40.0, 70.0, 0
1107, 42.0, 70.0, 0
1108, 44.0, 70.0, 0
1109, 46.0, 70.0, 0
1110, 48.0, 70.0, 0
1111, 50.0, 70.0, 0
1112, 52.0, 70.0, 0
1113, 54.0, 70.0, 0
1114, 56.0, 70.0, 0
1115, 58.0, 70.0, 0
1116, 60.0, 70.0, 0
1117, 0.0, 72.0, 0
1118, 2.0, 72.0, 0
1119, 4.0, 72.0, 0
1120, 6.0, 72.0, 0
1121, 8.0, 72.0, 0
1122, 10.0, 72.0, 0
1123, 12.0, 72.0, 0
1124, 14.0, 72.0, 0
1125, 16.0, 72.0, 0
1126, 18.0, 72.0, 0
1127, 20.0, 72.0, 0
1132, 30.0, 72.0, 0
1133, 32.0, 72.0, 0
1134, 34.0, 72.0, 0
1135, 36.0, 72.0, 0
1136, 38.0, 72.0, 0
1137, 40.0, 72.0, 0
1138, 42.0, 72.0, 0
1139, 44.0, 72.0, 0
1140, 46.0, 72.0, 0
1141, 48.0, 72.0, 0
1142, 50.0, 72.0, 0
1143, 52.0, 72.0, 0
1144, 54.0, 72.0, 0
1145, 56.0, 72.0, 0
1146, 58.0, 72.0, 0
1147, 60.0, 72.0, 0
1148, 0.0, 74.0, 0
1149, 2.0, 74.0, 0
1150, 4.0, 74.0, 0
1151, 6.0, 74.0, 0
1152, 8.0, 74.0, 0
1153, 10.0, 74.0, 0
1154, 12.0, 74.0, 0
1155, 14.0, 74.0, 0
1156, 16.0, 74.0, 0
1157, 18.0, 74.0, 0
1158, 20.0, 74.0, 0
1161, 26.0, 74.0, 0
1162, 28.0, 74.0, 0
1163, 30.0, 74.0, 0
1164, 32.0, 74.0, 0
1165, 34.0, 74.0, 0
1166, 36.0, 74.0, 0
1167, 38.0, 74.0, 0
1168, 40.0, 74.0, 0
1169, 42.0, 74.0, 0
1170, 44.0, 74.0, 0
1171, 46.0, 74.0, 0
1172, 48.0, 74.0, 0
1173, 50.0, 74.0, 0
1174, 52.0, 74.0, 0
1175, 54.0, 74.0, 0
1176, 56.0, 74.0, 0
1177, 58.0, 74.0, 0
1178, 60.0, 74.0, 0
1179, 0.0, 76.0, 0
1180, 2.0, 76.0, 0
1181, 4.0, 76.0, 0
1182, 6.0, 76.0, 0
1183, 8.0, 76.0, 0
1184, 10.0, 76.0, 0
1185, 12.0, 76.0, 0
1186, 14.0, 76.0, 0
1187, 16.0, 76.0, 0
1188, 18.0, 76.0, 0
1189, 20.0, 76.0, 0
1190, 22.0, 76.0, 0
1191, 24.0, 76.0, 0
1192, 26.0, 76.0, 0
1193, 28.0, 76.0, 0
1194, 30.0, 76.0, 0
1195, 32.0, 76.0, 0
1196, 34.0, 76.0, 0
1197, 36.0, 76.0, 0
1198, 38.0, 76.0, 0
1199, 40.0, 76.0, 0
1200, 42.0, 76.0, 0
1201, 44.0, 76.0, 0
1202, 46.0, 76.0, 0
1203, 48.0, 76.0, 0
1204, 50.0, 76.0, 0
1205, 52.0, 76.0, 0
1206, 54.0, 76.0, 0
1207, 56.0, 76.0, 0
1208, 58.0, 76.0, 0
1209, 60.0, 76.0, 0
1210, 0.0, 78.0, 0
1211, 2.0, 78.0, 0
1212, 4.0, 78.0, 0
1213, 6.0, 78.0, 0
1214, 8.0, 78.0, 0
1215, 10.0, 78.0, 0
1216, 12.0, 78.0, 0
1217, 14.0, 78.0, 0
1218, 16.0, 78.0, 0
1219, 18.0, 78.0, 0
1220, 20.0, 78.0, 0
1221, 22.0, 78.0, 0
1222, 24.0, 78.0, 0
1223, 26.0, 78.0, 0
1224, 28.0, 78.0, 0
1225, 30.0, 78.0, 0
1226, 32.0, 78.0, 0
1227, 34.0, 78.0, 0
1228, 36.0, 78.0, 0
1230, 40.0, 78.0, 0
1231, 42.0, 78.0, 0
1232, 44.0, 78.0, 0
1233, 46.0, 78.0, 0
1234, 48.0, 78.0, 0
1235, 50.0, 78.0, 0
1236, 52.0, 78.0, 0
1237, 54.0, 78.0, 0
1238, 56.0, 78.0, 0
1239, 58.0, 78.0, 0
1240, 60.0, 78.0, 0
1241, 0.0, 80.0, 0
1242, 2.0, 80.0, 0
1243, 4.0, 80.0, 0
1244, 6.0, 80.0, 0
1245, 8.0, 80.0, 0
1246, 10.0, 80.0, 0
1247, 12.0, 80.0, 0
1248, 14.0, 80.0, 0
1249, 16.0, 80.0, 0
1250, 18.0, 80.0, 0
1251, 20.0, 80.0, 0
1252, 22.0, 80.0, 0
1253, 24.0, 80.0, 0
1254, 26.0, 80.0, 0
1255, 28.0, 80.0, 0
1256, 30.0, 80.0, 0
1257, 32.0, 80.0, 0
1258, 34.0, 80.0, 0
1259, 36.0, 80.0, 0
1260, 38.0, 80.0, 0
1261, 40.0, 80.0, 0
1262, 42.0, 80.0, 0
1263, 44.0, 80.0, 0
1264, 46.0, 80.0, 0
1265, 48.0, 80.0, 0
1266, 50.0, 80.0, 0
1267, 52.0, 80.0, 0
1268, 54.0, 80.0, 0
1269, 56.0, 80.0, 0
1270, 58.0, 80.0, 0
1271, 60.0, 80.0, 0
1272, 0.0, 82.0, 0
1273, 2.0, 82.0, 0
1274, 4.0, 82.0, 0
1275, 6.0, 82.0, 0
1276, 8.0, 82.0, 0
1277, 10.0, 82.0, 0
1278, 12.0, 82.0, 0
1279, 14.0, 82.0, 0
1280, 16.0, 82.0, 0
1281, 18.0, 82.0, 0
1282, 20.0, 82.0, 0
1283, 22.0, 82.0, 0
1284, 24.0, 82.0, 0
1285, 26.0, 82.0, 0
1286, 28.0, 82.0, 0
1287, 30.0, 82.0, 0
1288, 32.0, 82.0, 0
1289, 34.0, 82.0, 0
1290, 36.0, 82.0, 0
1291, 38.0, 82.0, 0
1292, 40.0, 82.0, 0
1293, 42.0, 82.0, 0
1294, 44.0, 82.0, 0
1295, 46.0, 82.0, 0
1296, 48.0, 82.0, 0
1297, 50.0, 82.0, 0
1298, 52.0, 82.0, 0
1299, 54.0, 82.0, 0
1300, 56.0, 82.0, 0
1301, 58.0, 82.0, 0
1302, 60.0, 82.0, 0
1303, 0.0, 84.0, 0
1304, 2.0, 84.0, 0
1305, 4.0, 84.0, 0
1306, 6.0, 84.0, 0
1307, 8.0, 84.0, 0
1308, 10.0, 84.0, 0
1309, 12.0, 84.0, 0
1310, 14.0, 84.0, 0
1311, 16.0, 84.0, 0
1312, 18.0, 84.0, 0
1313, 20.0, 84.0, 0
1314, 22.0, 84.0, 0
1315, 24.0, 84.0, 0
1316, 26.0, 84.0, 0
1317, 28.0, 84.0, 0
1318, 30.0, 84.0, 0
1319, 32.0, 84.0, 0
1320, 34.0, 84.0, 0
1321, 36.0, 84.0, 0
1322, 38.0, 84.0, 0
1323, 40.0, 84.0, 0
1324, 42.0, 84.0, 0
1325, 44.0, 84.0, 0
1326, 46.0, 84.0, 0
1327, 48.0, 84.0, 0
1328, 50.0, 84.0, 0
1329, 52.0, 84.0, 0
1330, 54.0, 84.0, 0
1331, 56.0, 84.0, 0
1332, 58.0, 84.0, 0
1333, 60.0, 84.0, 0
1334, 0.0, 86.0, 0
1335, 2.0, 86.0, 0
1336, 4.0, 86.0, 0
1337, 6.0, 86.0, 0
1338, 8.0, 86.0, 0
1339, 10.0, 86.0, 0
1340, 12.0, 86.0, 0
1341, 14.0, 86.0, 0
1342, 16.0, 86.0, 0
1343, 18.0, 86.0, 0
1344, 20.0, 86.0, 0
1345, 22.0, 86.0, 0
1346, 24.0, 86.0, 0
1347, 26.0, 86.0, 0
1348, 28.0, 86.0, 0
1349, 30.0, 86.0, 0
1350, 32.0, 86.0, 0
1351, 34.0, 86.0, 0
1352, 36.0, 86.0, 0
1353, 38.0, 86.0, 0
1354, 40.0, 86.0, 0
1355, 42.0, 86.0, 0
1356, 44.0, 86.0, 0
1357, 46.0, 86.0, 0
1358, 48.0, 86.0, 0
1359, 50.0, 86.0, 0
1360, 52.0, 86.0, 0
1361, 54.0, 86.0, 0
1362, 56.0, 86.0, 0
1363, 58.0, 86.0, 0
1364, 60.0, 86.0, 0
1365, 0.0, 88.0, 0
1366, 2.0, 88.0, 0
1367, 4.0, 88.0, 0
1368, 6.0, 88.0, 0
1369, 8.0, 88.0, 0
1370, 10.0, 88.0, 0
1371, 12.0, 88.0, 0
1372, 14.0, 88.0, 0
1373, 16.0, 88.0, 0
1374, 18.0, 88.0, 0
1375, 20.0, 88.0, 0
1376, 22.0, 88.0, 0
1377, 24.0, 88.0, 0
1378, 26.0, 88.0, 0
1379, 28.0, 88.0, 0
1380, 30.0, 88.0, 0
1381, 32.0, 88.0, 0
1382, 34.0, 88.0, 0
1383, 36.0, 88.0, 0
1384, 38.0, 88.0, 0
1385, 40.0, 88.0, 0
1386, 42.0, 88.0, 0
1387, 44.0, 88.0, 0
1388, 46.0, 88.0, 0
1389, 48.0, 88.0, 0
1390, 50.0, 88.0, 0
1391, 52.0, 88.0, 0
1392, 54.0, 88.0, 0
1393, 56.0, 88.0, 0
1394, 58.0, 88.0, 0
1395, 60.0, 88.0, 0
1396, 0.0, 90.0, 0
1397, 2.0, 90.0, 0
1398, 4.0, 90.0, 0
1399, 6.0, 90.0, 0
1400, 8.0, 90.0, 0
1401, 10.0, 90.0, 0
1402, 12.0, 90.0, 0
1403, 14.0, 90.0, 0
1404, 16.0, 90.0, 0
1405, 18.0, 90.0, 0
1406, 20.0, 90.0, 0
1407, 22.0, 90.0, 0
1408, 24.0, 90.0, 0
1409, 26.0, 90.0, 0
1410, 28.0, 90.0, 0
1411, 30.0, 90.0, 0
1412, 32.0, 90.0, 0
1413, 34.0, 90.0, 0
1414, 36.0, 90.0, 0
1415, 38.0, 90.0, 0
1416, 40.0, 90.0, 0
1417, 42.0, 90.0, 0
1418, 44.0, 90.0, 0
1419, 46.0, 90.0, 0
1420, 48.0, 90.0, 0
1421, 50.0, 90.0, 0
1422, 52.0, 90.0, 0
1423, 54.0, 90.0, 0
1424, 56.0, 90.0, 0
1425, 58.0, 90.0, 0
1426, 60.0, 90.0, 0
*ELEMENT,TYPE=CPS4,ELSET=ALL
1,1,2,33,32
2,2,3,34,33
3,3,4,35,34
4,4,5,36,35
5,5,6,37,36
31,32,33,64,63
32,33,34,65,64
33,34,35,66,65
34,35,36,67,66
35,36,37,68,67
61,63,64,95,94
62,64,65,96,95
63,65,66,97,96
64,66,67,98,97
65,67,68,99,98
91,94,95,126,125
92,95,96,127,126
93,96,97,128,127
94,97,98,129,128
95,98,99,130,129
121,125,126,157,156
122,126,127,158,157
123,127,128,159,158
124,128,129,160,159
125,129,130,161,160
126,130,131,162,161
127,131,132,163,162
151,156,157,188,187
152,157,158,189,188
153,158,159,190,189
154,159,160,191,190
155,160,161,192,191
156,161,162,193,192
157,162,163,194,193
158,163,164,195,194
181,187,188,219,218
182,188,189,220,219
183,189,190,221,220
184,190,191,222,221
185,191,192,223,222
186,192,193,224,223
187,193,194,225,224
188,194,195,226,225
211,218,219,250,249
212,219,220,251,250
213,220,221,252,251
214,221,222,253,252
215,222,223,254,253
216,223,224,255,254
217,224,225,256,255
218,225,226,257,256
219,226,227,258,257
220,227,228,259,258
241,249,250,281,280
242,250,251,282,281
243,251,252,283,282
244,252,253,284,283
245,253,254,285,284
246,254,255,286,285
247,255,256,287,286
248,256,257,288,287
249,257,258,289,288
250,258,259,290,289
273,282,283,314,313
274,283,284,315,314
275,284,285,316,315
276,285,286,317,316
277,286,287,318,317
278,287,288,319,318
279,288,289,320,319
280,289,290,321,320
281,290,291,322,321
282,291,292,323,322
304,314,315,346,345
305,315,316,347,346
306,316,317,348,347
307,317,318,349,348
308,318,319,350,349
309,319,320,351,350
310,320,321,352,351
311,321,322,353,352
312,322,323,354,353
335,346,347,378,377
336,347,348,379,378
337,348,349,380,379
338,349,350,381,380
339,350,351,382,381
340,351,352,383,382
341,352,353,384,383
342,353,354,385,384
343,354,355,386,385
344,355,356,387,386
365,377,378,409,408
366,378,379,410,409
367,379,380,411,410
368,380,381,412,411
369,381,382,413,412
370,382,383,414,413
371,383,384,415,414
372,384,385,416,415
373,385,386,417,416
374,386,387,418,417
396,409,410,441,440
397,410,411,442,441
398,411,412,443,442
399,412,413,444,443
400,413,414,445,444
401,414,415,446,445
402,415,416,447,446
403,416,417,448,447
404,417,418,449,448
405,418,419,450,449
406,419,420,451,450
427,441,442,473,472
428,442,443,474,473
429,443,444,475,474
430,444,445,476,475
431,445,446,477,476
432,446,447,478,477
433,447,448,479,478
434,448,449,480,479
435,449,450,481,480
436,450,451,482,481
458,473,474,505,504
459,474,475,506,505
460,475,476,507,506
461,476,477,508,507
462,477,478,509,508
463,478,479,510,509
464,479,480,511,510
465,480,481,512,511
466,481,482,513,512
467,482,483,514,513
489,505,506,537,536
490,506,507,538,537
491,507,508,539,538
492,508,509,540,539
493,509,510,541,540
494,510,511,542,541
495,511,512,543,542
496,512,513,544,543
497,513,514,545,544
498,514,515,546,545
520,537,538,569,568
521,538,539,570,569
522,539,540,571,570
523,540,541,572,571
524,541,542,573,572
525,542,543,574,573
526,543,544,575,574
527,544,545,576,575
528,545,546,577,576
529,546,547,578,577
551,569,570,601,600
552,570,571,602,601
553,571,572,603,602
554,572,573,604,603
555,573,574,605,604
556,574,575,606,605
557,575,576,607,606
558,576,577,608,607
559,577,578,609,608
560,578,579,610,609
582,601,602,633,632
583,602,603,634,633
584,603,604,635,634
585,604,605,636,635
586,605,606,637,636
587,606,607,638,637
588,607,608,639,638
589,608,609,640,639
590,609,610,641,640
591,610,611,642,641
613,633,634,665,664
614,634,635,666,665
615,635,636,667,666
616,636,637,668,667
617,637,638,669,668
618,638,639,670,669
619,639,640,671,670
620,640,641,672,671
621,641,642,673,672
622,642,643,674,673
644,665,666,697,696
645,666,667,698,697
646,667,668,699,698
647,668,669,700,699
648,669,670,701,700
649,670,671,702,701
650,671,672,703,702
651,672,673,704,703
652,673,674,705,704
653,674,675,706,705
675,697,698,729,728
676,698,699,730,729
677,699,700,731,730
678,700,701,732,731
679,701,702,733,732
680,702,703,734,733
681,703,704,735,734
682,704,705,736,735
683,705,706,737,736
684,706,707,738,737
706,729,730,761,760
707,730,731,762,761
708,731,732,763,762
709,732,733,764,763
710,733,734,765,764
711,734,735,766,765
712,735,736,767,766
713,736,737,768,767
714,737,738,769,768
715,738,739,770,769
737,761,762,793,792
738,762,763,794,793
739,763,764,795,794
740,764,765,796,795
741,765,766,797,796
742,766,767,798,797
743,767,768,799,798
744,768,769,800,799
745,769,770,801,800
767,792,793,824,823
768,793,794,825,824
769,794,795,826,825
770,795,796,827,826
771,796,797,828,827
772,797,798,829,828
773,798,799,830,829
774,799,800,831,830
775,800,801,832,831
776,801,802,833,832
797,823,824,855,854
798,824,825,856,855
799,825,826,857,856
800,826,827,858,857
801,827,828,859,858
802,828,829,860,859
803,829,830,861,860
804,830,831,862,861
805,831,832,863,862
806,832,833,864,863
827,854,855,886,885
828,855,856,887,886
829,856,857,888,887
830,857,858,889,888
831,858,859,890,889
832,859,860,891,890
833,860,861,892,891
834,861,862,893,892
835,862,863,894,893
836,863,864,895,894
837,864,865,896,895
855,883,884,915,914
856,884,885,916,915
857,885,886,917,916
858,886,887,918,917
859,887,888,919,918
860,888,889,920,919
861,889,890,921,920
862,890,891,922,921
863,891,892,923,922
864,892,893,924,923
865,893,894,925,924
866,894,895,926,925
867,895,896,927,926
885,914,915,946,945
886,915,916,947,946
887,916,917,948,947
888,917,918,949,948
889,918,919,950,949
890,919,920,951,950
891,920,921,952,951
892,921,922,953,952
893,922,923,954,953
894,923,924,955,954
895,924,925,956,955
896,925,926,957,956
897,926,927,958,957
898,927,928,959,958
913,943,944,975,974
914,944,945,976,975
915,945,946,977,976
916,946,947,978,977
917,947,948,979,978
920,950,951,982,981
921,951,952,983,982
922,952,953,984,983
923,953,954,985,984
924,954,955,986,985
925,955,956,987,986
926,956,957,988,987
927,957,958,989,988
928,958,959,990,989
942,973,974,1005,1004
943,974,975,1006,1005
944,975,976,1007,1006
945,976,977,1008,1007
946,977,978,1009,1008
951,982,983,1014,1013
952,983,984,1015,1014
953,984,985,1016,1015
954,985,986,1017,1016
955,986,987,1018,1017
956,987,988,1019,1018
957,988,989,1020,1019
958,989,990,1021,1020
970,1002,1003,1034,1033
971,1003,1004,1035,1034
972,1004,1005,1036,1035
973,1005,1006,1037,1036
974,1006,1007,1038,1037
981,1013,1014,1045,1044
982,1014,1015,1046,1045
983,1015,1016,1047,1046
984,1016,1017,1048,1047
985,1017,1018,1049,1048
986,1018,1019,1050,1049
987,1019,1020,1051,1050
988,1020,1021,1052,1051
989,1021,1022,1053,1052
999,1032,1033,1064,1063
1000,1033,1034,1065,1064
1001,1034,1035,1066,1065
1002,1035,1036,1067,1066
1003,1036,1037,1068,1067
1011,1044,1045,1076,1075
1012,1045,1046,1077,1076
1013,1046,1047,1078,1077
1014,1047,1048,1079,1078
1015,1048,1049,1080,1079
1016,1049,1050,1081,1080
1017,1050,1051,1082,1081
1018,1051,1052,1083,1082
1019,1052,1053,1084,1083
1021,1055,1056,1087,1086
1022,1056,1057,1088,1087
1023,1057,1058,1089,1088
1024,1058,1059,1090,1089
1025,1059,1060,1091,1090
1028,1062,1063,1094,1093
1029,1063,1064,1095,1094
1030,1064,1065,1096,1095
1031,1065,1066,1097,1096
1032,1066,1067,1098,1097
1041,1075,1076,1107,1106
1042,1076,1077,1108,1107
1043,1077,1078,1109,1108
1044,1078,1079,1110,1109
1045,1079,1080,1111,1110
1046,1080,1081,1112,1111
1047,1081,1082,1113,1112
1048,1082,1083,1114,1113
1049,1083,1084,1115,1114
1050,1084,1085,1116,1115
1051,1086,1087,1118,1117
1052,1087,1088,1119,1118
1053,1088,1089,1120,1119
1054,1089,1090,1121,1120
1055,1090,1091,1122,1121
1056,1091,1092,1123,1122
1057,1092,1093,1124,1123
1058,1093,1094,1125,1124
1059,1094,1095,1126,1125
1060,1095,1096,1127,1126
1070,1105,1106,1137,1136
1071,1106,1107,1138,1137
1072,1107,1108,1139,1138
1073,1108,1109,1140,1139
1074,1109,1110,1141,1140
1075,1110,1111,1142,1141
1076,1111,1112,1143,1142
1077,1112,1113,1144,1143
1078,1113,1114,1145,1144
1079,1114,1115,1146,1145
1080,1115,1116,1147,1146
1081,1117,1118,1149,1148
1082,1118,1119,1150,1149
1083,1119,1120,1151,1150
1084,1120,1121,1152,1151
1085,1121,1122,1153,1152
1086,1122,1123,1154,1153
1087,1123,1124,1155,1154
1088,1124,1125,1156,1155
1089,1125,1126,1157,1156
1090,1126,1127,1158,1157
1096,1132,1133,1164,1163
1097,1133,1134,1165,1164
1098,1134,1135,1166,1165
1099,1135,1136,1167,1166
1100,1136,1137,1168,1167
1101,1137,1138,1169,1168
1102,1138,1139,1170,1169
1103,1139,1140,1171,1170
1104,1140,1141,1172,1171
1105,1141,1142,1173,1172
1106,1142,1143,1174,1173
1107,1143,1144,1175,1174
1108,1144,1145,1176,1175
1109,1145,1146,1177,1176
1110,1146,1147,1178,1177
1111,1148,1149,1180,1179
1112,1149,1150,1181,1180
1113,1150,1151,1182,1181
1114,1151,1152,1183,1182
1115,1152,1153,1184,1183
1116,1153,1154,1185,1184
1117,1154,1155,1186,1185
1118,1155,1156,1187,1186
1119,1156,1157,1188,1187
1120,1157,1158,1189,1188
1124,1161,1162,1193,1192
1125,1162,1163,1194,1193
1126,1163,1164,1195,1194
1127,1164,1165,1196,1195
1128,1165,1166,1197,1196
1129,1166,1167,1198,1197
1130,1167,1168,1199,1198
1131,1168,1169,1200,1199
1132,1169,1170,1201,1200
1133,1170,1171,1202,1201
1134,1171,1172,1203,1202
1135,1172,1173,1204,1203
1136,1173,1174,1205,1204
1137,1174,1175,1206,1205
1138,1175,1176,1207,1206
1139,1176,1177,1208,1207
1140,1177,1178,1209,1208
1141,1179,1180,1211,1210
1142,1180,1181,1212,1211
1143,1181,1182,1213,1212
1144,1182,1183,1214,1213
1145,1183,1184,1215,1214
1146,1184,1185,1216,1215
1147,1185,1186,1217,1216
1148,1186,1187,1218,1217
1149,1187,1188,1219,1218
1150,1188,1189,1220,1219
1151,1189,1190,1221,1220
1152,1190,1191,1222,1221
1153,1191,1192,1223,1222
1154,1192,1193,1224,1223
1155,1193,1194,1225,1224
1156,1194,1195,1226,1225
1157,1195,1196,1227,1226
1158,1196,1197,1228,1227
1161,1199,1200,1231,1230
1162,1200,1201,1232,1231
1163,1201,1202,1233,1232
1164,1202,1203,1234,1233
1165,1203,1204,1235,1234
1166,1204,1205,1236,1235
1167,1205,1206,1237,1236
1168,1206,1207,1238,1237
1169,1207,1208,1239,1238
1170,1208,1209,1240,1239
1171,1210,1211,1242,1241
1172,1211,1212,1243,1242
1173,1212,1213,1244,1243
1174,1213,1214,1245,1244
1175,1214,1215,1246,1245
1176,1215,1216,1247,1246
1177,1216,1217,1248,1247
1178,1217,1218,1249,1248
1179,1218,1219,1250,1249
1180,1219,1220,1251,1250
1181,1220,1221,1252,1251
1182,1221,1222,1253,1252
1183,1222,1223,1254,1253
1184,1223,1224,1255,1254
1185,1224,1225,1256,1255
1186,1225,1226,1257,1256
1187,1226,1227,1258,1257
1192,1231,1232,1263,1262
1193,1232,1233,1264,1263
1194,1233,1234,1265,1264
1195,1234,1235,1266,1265
1196,1235,1236,1267,1266
1197,1236,1237,1268,1267
1198,1237,1238,1269,1268
1199,1238,1239,1270,1269
1200,1239,1240,1271,1270
1201,1241,1242,1273,1272
1202,1242,1243,1274,1273
1203,1243,1244,1275,1274
1204,1244,1245,1276,1275
1205,1245,1246,1277,1276
1206,1246,1247,1278,1277
1207,1247,1248,1279,1278
1208,1248,1249,1280,1279
1209,1249,1250,1281,1280
1210,1250,1251,1282,1281
1211,1251,1252,1283,1282
1212,1252,1253,1284,1283
1213,1253,1254,1285,1284
1214,1254,1255,1286,1285
1215,1255,1256,1287,1286
1216,1256,1257,1288,1287
1217,1257,1258,1289,1288
1218,1258,1259,1290,1289
1219,1259,1260,1291,1290
1220,1260,1261,1292,1291
1221,1261,1262,1293,1292
1222,1262,1263,1294,1293
1223,1263,1264,1295,1294
1224,1264,1265,1296,1295
1225,1265,1266,1297,1296
1226,1266,1267,1298,1297
1227,1267,1268,1299,1298
1228,1268,1269,1300,1299
1229,1269,1270,1301,1300
1230,1270,1271,1302,1301
1231,1272,1273,1304,1303
1232,1273,1274,1305,1304
1233,1274,1275,1306,1305
1234,1275,1276,1307,1306
1235,1276,1277,1308,1307
1236,1277,1278,1309,1308
1237,1278,1279,1310,1309
1238,1279,1280,1311,1310
1239,1280,1281,1312,1311
1240,1281,1282,1313,1312
1241,1282,1283,1314,1313
1242,1283,1284,1315,1314
1243,1284,1285,1316,1315
1244,1285,1286,1317,1316
1245,1286,1287,1318,1317
1246,1287,1288,1319,1318
1247,1288,1289,1320,1319
1248,1289,1290,1321,1320
1249,1290,1291,1322,1321
1250,1291,1292,1323,1322
1251,1292,1293,1324,1323
1252,1293,1294,1325,1324
1253,1294,1295,1326,1325
1254,1295,1296,1327,1326
1255,1296,1297,1328,1327
1256,1297,1298,1329,1328
1257,1298,1299,1330,1329
1258,1299,1300,1331,1330
1259,1300,1301,1332,1331
1260,1301,1302,1333,1332
1261,1303,1304,1335,1334
1262,1304,1305,1336,1335
1263,1305,1306,1337,1336
1264,1306,1307,1338,1337
1265,1307,1308,1339,1338
1266,1308,1309,1340,1339
1267,1309,1310,1341,1340
1268,1310,1311,1342,1341
1269,1311,1312,1343,1342
1270,1312,1313,1344,1343
1271,1313,1314,1345,1344
1272,1314,1315,1346,1345
1273,1315,1316,1347,1346
1274,1316,1317,1348,1347
1275,1317,1318,1349,1348
1276,1318,1319,1350,1349
1277,1319,1320,1351,1350
1278,1320,1321,1352,1351
1279,1321,1322,1353,1352
1280,1322,1323,1354,1353
1281,1323,1324,1355,1354
1282,1324,1325,1356,1355
1283,1325,1326,1357,1356
1284,1326,1327,1358,1357
1285,1327,1328,1359,1358
1286,1328,1329,1360,1359
1287,1329,1330,1361,1360
1288,1330,1331,1362,1361
1289,1331,1332,1363,1362
1290,1332,1333,1364,1363
1291,1334,1335,1366,1365
1292,1335,1336,1367,1366
1293,1336,1337,1368,1367
1294,1337,1338,1369,1368
1295,1338,1339,1370,1369
1296,1339,1340,1371,1370
1297,1340,1341,1372,1371
1298,1341,1342,1373,1372
1299,1342,1343,1374,1373
1300,1343,1344,1375,1374
1301,1344,1345,1376,1375
1302,1345,1346,1377,1376
1303,1346,1347,1378,1377
1304,1347,1348,1379,1378
1305,1348,1349,1380,1379
1306,1349,1350,1381,1380
1307,1350,1351,1382,1381
1308,1351,1352,1383,1382
1309,1352,1353,1384,1383
1310,1353,1354,1385,1384
1311,1354,1355,1386,1385
1312,1355,1356,1387,1386
1313,1356,1357,1388,1387
1314,1357,1358,1389,1388
1315,1358,1359,1390,1389
1316,1359,1360,1391,1390
1317,1360,1361,1392,1391
1318,1361,1362,1393,1392
1319,1362,1363,1394,1393
1320,1363,1364,1395,1394
1321,1365,1366,1397,1396
1322,1366,1367,1398,1397
1323,1367,1368,1399,1398
1324,1368,1369,1400,1399
1325,1369,1370,1401,1400
1326,1370,1371,1402,1401
1327,1371,1372,1403,1402
1328,1372,1373,1404,1403
1329,1373,1374,1405,1404
1330,1374,1375,1406,1405
1331,1375,1376,1407,1406
1332,1376,1377,1408,1407
1333,1377,1378,1409,1408
1334,1378,1379,1410,1409
1335,1379,1380,1411,1410
1336,1380,1381,1412,1411
1337,1381,1382,1413,1412
1338,1382,1383,1414,1413
1339,1383,1384,1415,1414
1340,1384,1385,1416,1415
1341,1385,1386,1417,1416
1342,1386,1387,1418,1417
1343,1387,1388,1419,1418
1344,1388,1389,1420,1419
1345,1389,1390,1421,1420
1346,1390,1391,1422,1421
1347,1391,1392,1423,1422
1348,1392,1393,1424,1423
1349,1393,1394,1425,1424
1350,1394,1395,1426,1425
*ELSET,ELSET=DESIGN
126,127,156,157,158,186,187,188,211,212,213,214,215,216,217,218
219,220,241,242,243,244,245,246,247,248,249,250,273,274,275,276
277,278,279,280,281,282,304,305,306,307,308,309,310,311,312,335
336,337,338,339,340,341,342,343,344,365,366,367,368,369,370,371
372,373,374,396,397,398,399,400,401,402,403,404,405,406,427,428
429,430,431,432,433,434,435,436,458,459,460,461,462,463,464,465
466,467,489,490,491,492,493,494,495,496,497,498,520,521,522,523
524,525,526,527,528,529,551,552,553,554,555,556,557,558,559,560
582,583,584,585,586,587,588,589,590,591,613,614,615,616,617,618
619,620,621,622,644,645,646,647,648,649,650,651,652,653,675,676
677,678,679,680,681,682,683,684,706,707,708,709,710,711,712,713
714,715,737,738,739,740,741,742,743,744,745,767,768,769,770,771
772,773,774,775,776,797,798,799,800,801,802,803,804,805,806,827
828,829,830,831,832,833,834,835,836,837,855,856,857,858,859,860
861,862,863,864,865,866,867,885,886,887,888,889,890,891,892,893
894,895,896,897,898,913,914,915,916,917,920,921,922,923,924,925
926,927,928,942,943,944,945,946,951,952,953,954,955,956,957,958
970,971,972,973,974,981,982,983,984,985,986,987,988,989,999,1000
1001,1002,1003,1011,1012,1013,1014,1015,1016,1017,1018,1019,1028,1029,1030,1031
1032,1041,1042,1043,1044,1045,1046,1047,1048,1049,1050,1056,1057,1058,1059,1060
1070,1071,1072,1073,1074,1075,1076,1077,1078,1079,1080,1086,1087,1088,1089,1090
1096,1097,1098,1099,1100,1101,1102,1103,1104,1105,1106,1107,1108,1109,1110,1116
1117,1118,1119,1120,1124,1125,1126,1127,1128,1129,1130,1131,1132,1133,1134,1135
1136,1137,1138,1139,1140,1146,1147,1148,1149,1150,1151,1152,1153,1154,1155,1156
1157,1158,1161,1162,1163,1164,1165,1166,1167,1168,1169,1170,1176,1177,1178,1179
1180,1181,1182,1183,1184,1185,1186,1187,1192,1193,1194,1195,1196,1197,1198,1199
1200,1206,1207,1208,1209,1210,1211,1212,1213,1214,1215,1216,1217,1236,1237,1238
1239,1240,1241,1242,1243,1244,1245,1246,1247,1266,1267,1268,1269,1270,1271,1272
1273,1274,1275,1276,1277,1296,1297,1298,1299,1300,1301,1302,1303,1304,1305,1306
1307,1326,1327,1328,1329,1330,1331,1332,1333,1334,1335,1336,1337
*ELSET,ELSET=KEEP
1,2,3,4,5,31,32,33,34,35,61,62,63,64,65,91
92,93,94,95,121,122,123,124,125,151,152,153,154,155,181,182
183,184,185,1021,1022,1023,1024,1025,1051,1052,1053,1054,1055,1081,1082,1083
1084,1085,1111,1112,1113,1114,1115,1141,1142,1143,1144,1145,1171,1172,1173,1174
1175,1201,1202,1203,1204,1205,1218,1219,1220,1221,1222,1223,1224,1225,1226,1227
1228,1229,1230,1231,1232,1233,1234,1235,1248,1249,1250,1251,1252,1253,1254,1255
1256,1257,1258,1259,1260,1261,1262,1263,1264,1265,1278,1279,1280,1281,1282,1283
1284,1285,1286,1287,1288,1289,1290,1291,1292,1293,1294,1295,1308,1309,1310,1311
1312,1313,1314,1315,1316,1317,1318,1319,1320,1321,1322,1323,1324,1325,1338,1339
1340,1341,1342,1343,1344,1345,1346,1347,1348,1349,1350
*ELSET,ELSET=M420
32,33,34,62,63,64,92,93,94,122,123,124,152,153,154,155
156,182,183,184,185,186,187,212,213,214,215,216,217,244,245,246
247,248,249,275,276,277,278,279,306,307,308,309,310,311,336,337
338,339,340,341,367,368,369,370,371,372,373,398,399,400,401,402
403,429,430,431,432,433,434,435,460,461,462,463,464,465,491,492
493,494,495,496,522,523,524,525,526,527,553,554,555,556,557,558
584,585,586,587,588,589,615,616,617,618,619,620,646,647,648,649
650,651,677,678,679,680,681,682,708,709,710,711,712,713,738,739
740,741,742,743,744,768,769,770,771,772,773,774,798,799,800,801
802,803,804,805,828,829,830,831,832,833,834,835,858,859,860,861
862,863,864,865,866,886,891,892,893,894,895,896,922,923,924,925
926,927,952,953,954,955,956,957,982,983,984,985,986,987,1001,1012
1013,1014,1015,1016,1017,1018,1042,1043,1044,1045,1046,1047,1048,1052,1053,1054
1059,1072,1073,1074,1075,1076,1077,1078,1079,1082,1083,1084,1085,1086,1087,1088
1089,1101,1102,1103,1104,1105,1106,1107,1108,1109,1112,1113,1114,1115,1116,1117
1118,1119,1127,1132,1133,1134,1135,1136,1137,1138,1139,1142,1143,1144,1145,1146
1147,1148,1149,1155,1156,1163,1164,1165,1166,1167,1168,1169,1172,1173,1174,1175
1176,1177,1178,1179,1180,1181,1182,1183,1184,1185,1186,1193,1194,1195,1196,1197
1198,1199,1202,1203,1204,1205,1206,1207,1208,1209,1210,1211,1212,1213,1214,1215
1216,1223,1224,1225,1226,1227,1228,1229,1232,1233,1234,1235,1236,1237,1238,1239
1240,1241,1242,1243,1244,1245,1246,1247,1248,1249,1250,1251,1252,1253,1254,1255
1256,1257,1258,1259,1262,1263,1264,1265,1266,1267,1268,1269,1270,1271,1272,1273
1274,1275,1276,1277,1278,1279,1280,1281,1282,1283,1284,1285,1286,1287,1288,1289
1292,1293,1294,1295,1296,1297,1298,1299,1300,1301,1302,1303,1304,1305,1306,1307
1308,1309,1310,1311,1312,1313,1314,1315,1316,1317,1318,1319
*MATERIAL,NAME=M420
*ELASTIC
420,0.35
*SOLID SECTION,ELSET=M420,MATERIAL=M420
10.0
*ELSET,ELSET=M920
125,157,218,243,274,280,305,342,366,397,404,428,459,466,490,497
521,528,552,559,583,590,614,621,645,652,676,683,707,714,775,836
857,887,890,897,915,916,921,943,944,972,973,988,1000,1002,1029,1030
1049,1055,1058,1071,1100,1126,1128,1131,1150,1154,1157,1162,1217,1222
*MATERIAL,NAME=M920
*ELASTIC
920,0.35
*SOLID SECTION,ELSET=M920,MATERIAL=M920
10.0
*ELSET,ELSET=M1250
2,3,4,31,35,61,65,91,95,121,126,151,181,188,211,219
242,250,281,312,335,343,374,405,436,737,745,767,797,806,827,856
867,885,888,889,914,928,945,951,958,971,981,1011,1019,1022,1023,1024
1031,1041,1051,1056,1057,1060,1080,1081,1090,1097,1098,1099,1110,1111,1120,1125
1129,1130,1140,1141,1151,1152,1153,1170,1171,1187,1192,1200,1201,1218,1219,1220
1221,1230,1231,1260,1261,1290,1291,1320,1322,1323,1324,1325,1326,1327,1328,1329
1330,1331,1332,1333,1334,1335,1336,1337,1338,1339,1340,1341,1342,1343,1344,1345
1346,1347,1348,1349
*MATERIAL,NAME=M1250
*ELASTIC
1250,0.35
*SOLID SECTION,ELSET=M1250,MATERIAL=M1250
10.0
*ELSET,ELSET=M1580
1,5,127,158,220,241,273,282,304,344,365,396,406,427,458,467
489,498,520,529,551,560,582,591,613,622,644,653,675,684,706,715
776,837,855,898,913,917,920,942,946,970,974,989,999,1003,1021,1025
1028,1032,1050,1070,1096,1124,1158,1161,1321,1350
*MATERIAL,NAME=M1580
*ELASTIC
1580,0.35
*SOLID SECTION,ELSET=M1580,MATERIAL=M1580
10.0
*NSET,NSET=SUPPORT
1,32,63,94,125,156,187,1086,1117,1148,1179,1210,1241,1272,1303,1334
1365,1396
*NSET,NSET=LOAD
1415,1416,1417,1418,1419,1420,1421,1422,1423,1424,1425
*BOUNDARY
SUPPORT,1,2
*STEP
*STATIC
*CLOAD,OP=NEW
1415,1,2.727272727272727
1415,2,-6.6886363636363635
1416,1,2.727272727272727
1416,2,-6.6886363636363635
1417,1,2.727272727272727
1417,2,-6.6886363636363635
1418,1,2.727272727272727
1418,2,-6.6886363636363635
1419,1,2.727272727272727
1419,2,-6.6886363636363635
1420,1,2.727272727272727
1420,2,-6.6886363636363635
1421,1,2.727272727272727
1421,2,-6.6886363636363635
1422,1,2.727272727272727
1422,2,-6.6886363636363635
1423,1,2.727272727272727
1423,2,-6.6886363636363635
1424,1,2.727272727272727
1424,2,-6.6886363636363635
1425,1,2.727272727272727
1425,2,-6.6886363636363635
*NODE PRINT,NSET=LOAD
U
*EL PRINT,ELSET=ALL
S,ENER
*NODE FILE
U
*EL FILE
S
*END STEP
*STEP
*STATIC
*CLOAD,OP=NEW
1415,1,4.545454545454546
1415,2,2.727272727272727
1416,1,4.545454545454546
1416,2,2.727272727272727
1417,1,4.545454545454546
1417,2,2.727272727272727
1418,1,4.545454545454546
1418,2,2.727272727272727
1419,1,4.545454545454546
1419,2,2.727272727272727
1420,1,4.545454545454546
1420,2,2.727272727272727
1421,1,4.545454545454546
1421,2,2.727272727272727
1422,1,4.545454545454546
1422,2,2.727272727272727
1423,1,4.545454545454546
1423,2,2.727272727272727
1424,1,4.545454545454546
1424,2,2.727272727272727
1425,1,4.545454545454546
1425,2,2.727272727272727
*NODE PRINT,NSET=LOAD
U
*EL PRINT,ELSET=ALL
S,ENER
*NODE FILE
U
*EL FILE
S
*END STEP
